!Agilent Technologies,N5227A,US51270434,A.10.00.00
!Agilent N5227A: A.10.00.00
!Date: Monday, January 26, 2026 17:30:35
!Correction: S11(Full 1 Port(1)) 
!S1P File: Measurement: S11:
# Hz S  dB   R 50
10000000 -16.171982 -0.94831318
209950000 -15.833761 -3.4365027
409900000 -15.792711 -7.0030742
609850000 -15.718184 -10.697865
809800000 -15.622317 -14.664777
1009750000 -15.504074 -18.030022
1209700000 -15.455963 -21.608665
1409650000 -15.298677 -25.405422
1609600000 -15.172582 -28.663187
1809550000 -15.036317 -32.097725
2009500000 -14.907498 -35.478588
2209450000 -14.682508 -38.907455
2409400000 -14.561755 -41.510841
2609350000 -14.416045 -44.885689
2809300000 -14.207716 -47.822163
3009250000 -13.980332 -50.652218
3209200000 -13.856181 -53.276615
3409150000 -13.688881 -56.267227
3609100000 -13.391356 -58.772625
3809050000 -13.279275 -61.353252
4009000000 -13.049644 -64.064354
4208950000 -12.889077 -66.444519
4408900000 -12.650825 -68.595673
4608850000 -12.520337 -70.926849
4808800000 -12.257774 -73.373764
5008750000 -12.071278 -74.98587
5208700000 -11.92745 -77.329521
5408650000 -11.715937 -79.54879
5608600000 -11.492892 -81.679878
5808550000 -11.301332 -83.104881
6008500000 -11.186431 -85.642746
6208450000 -10.934758 -87.319908
6408400000 -10.791765 -89.179832
6608350000 -10.616978 -90.743217
6808300000 -10.474359 -92.987564
7008250000 -10.238128 -94.525017
7208200000 -10.124966 -96.036064
7408150000 -9.9376287 -98.179192
7608100000 -9.770875 -99.58606
7808050000 -9.6011801 -101.30161
8008000000 -9.477108 -102.75297
8207950000 -9.2896538 -104.78153
8407900000 -9.119771 -105.76966
8607850000 -9.0157967 -107.62015
8807800000 -8.852809 -109.2487
9007750000 -8.6824188 -110.65327
9207700000 -8.5382023 -111.91727
9407650000 -8.4631176 -113.62699
9607600000 -8.2686834 -115.25181
9807550000 -8.1441507 -116.34949
10007500000 -8.0254173 -117.86464
10207450000 -7.9425249 -119.51099
10407400000 -7.7419996 -120.83274
10607350000 -7.668592 -122.00752
10807300000 -7.562263 -123.67414
11007250000 -7.4070377 -124.86073
11207200000 -7.311337 -126.12219
11407150000 -7.2198496 -127.53813
11607100000 -7.1077709 -129.32622
11807050000 -6.9246421 -130.16127
12007000000 -6.8785567 -131.52003
12206950000 -6.7705317 -132.92334
12406900000 -6.6296825 -134.31311
12606850000 -6.5289598 -135.23347
12806800000 -6.4791384 -136.71997
13006750000 -6.3478961 -138.27562
13206700000 -6.2199993 -139.17514
13406650000 -6.1767321 -140.50383
13606600000 -6.1127071 -141.81802
13806550000 -5.9708905 -143.13838
14006500000 -5.9086022 -144.04247
14206450000 -5.8576994 -145.63573
14406400000 -5.7197585 -146.83662
14606350000 -5.6518011 -147.70468
14806300000 -5.6159463 -149.19197
15006250000 -5.5218182 -150.64319
15206200000 -5.3455129 -151.71964
15406150000 -5.3450389 -152.40451
15606100000 -5.3135333 -154.21292
15806050000 -5.1798005 -155.41417
16006000000 -5.0653276 -156.31197
16205950000 -5.0773983 -157.42001
16405900000 -4.9768853 -158.97963
16605850000 -4.8347673 -159.7963
16805800000 -4.8575091 -160.83118
17005750000 -4.7839217 -162.38663
17205700000 -4.6551318 -163.49382
17405650000 -4.5628061 -164.14496
17605600000 -4.6565213 -165.40819
17805550000 -4.5457306 -167.11009
18005500000 -4.4271784 -167.85619
18205450000 -4.4283347 -168.69308
18405400000 -4.4328389 -170.23018
18605350000 -4.2915859 -171.63081
18805300000 -4.1985407 -172.14044
19005250000 -4.282187 -173.39671
19205200000 -4.173173 -174.87885
19405150000 -4.0722485 -175.93689
19605100000 -4.0576124 -176.56247
19805050000 -4.0531068 -178.12596
20005000000 -3.8865876 -179.14775
20204950000 -3.9024856 -179.93678
20404900000 -3.9236674 178.85777
20604850000 -3.8160341 177.33528
20804800000 -3.6700296 176.47958
21004750000 -3.7747376 176.10242
21204700000 -3.7979853 174.23701
21404650000 -3.6429119 172.95879
21604600000 -3.5709128 172.5266
21804550000 -3.6922357 171.67432
22004500000 -3.6307316 169.9346
22204450000 -3.5250709 168.98286
22404400000 -3.5504451 168.5733
22604350000 -3.5437503 166.86218
22804300000 -3.4685915 165.85721
23004250000 -3.3988118 164.99063
23204200000 -3.4610109 164.27139
23404150000 -3.3664114 162.45421
23604100000 -3.3154321 161.89174
23804050000 -3.3468804 161.23204
24004000000 -3.3338401 159.8329
24203950000 -3.2528353 158.47751
24403900000 -3.1949561 158.17931
24603850000 -3.3094778 157.15158
24803800000 -3.1867995 155.47403
25003750000 -3.1742582 154.791
25203700000 -3.1511054 154.40388
25403650000 -3.2156191 153.07919
25603600000 -3.1277668 151.65451
25803550000 -3.0845349 151.11324
26003500000 -3.1231647 150.15134
26203450000 -3.0784481 148.86882
26403400000 -3.0814562 147.88126
26603350000 -3.0400143 147.24921
26803300000 -3.1168733 145.78807
27003250000 -2.9784272 144.979
27203200000 -3.04111 144.51834
27403150000 -3.0240476 143.27881
27603100000 -2.9974511 142.28358
27803050000 -2.9270408 141.48347
28003000000 -2.9335179 141.21716
28202950000 -2.9704399 139.20856
28402900000 -2.8953955 138.61871
28602850000 -2.919163 137.67865
28802800000 -2.9554043 136.95224
29002750000 -2.9203937 135.45949
29202700000 -2.9051716 135.12495
29402650000 -2.9183276 134.57846
29602600000 -2.9348555 133.01224
29802550000 -2.9017079 132.50319
30002500000 -2.9009979 131.41512
30202450000 -2.8959143 130.79611
30402400000 -2.8609173 129.55298
30602350000 -2.8606365 129.17497
30802300000 -2.8644993 128.0428
31002250000 -2.8172302 126.77409
31202200000 -2.7821488 126.76454
31402150000 -2.778265 125.84923
31602100000 -2.8872309 125.12345
31802050000 -2.7788587 123.31792
32002000000 -2.7766223 123.59894
32201950000 -2.8066413 122.37718
32401900000 -2.8254638 121.14935
32601850000 -2.7558403 120.43466
32801800000 -2.759877 119.65716
33001750000 -2.8176572 118.80424
33201700000 -2.7235234 117.78709
33401650000 -2.7669678 117.19836
33601600000 -2.7027328 116.30831
33801550000 -2.7700069 115.33772
34001500000 -2.6443439 114.82205
34201450000 -2.7187574 113.61773
34401400000 -2.7144508 112.85407
34601350000 -2.6746638 111.8438
34801300000 -2.7313194 111.77641
35001250000 -2.6978145 110.15321
35201200000 -2.7197988 109.28013
35401150000 -2.5583022 109.06735
35601100000 -2.6914272 108.34341
35801050000 -2.7180195 107.47338
36001000000 -2.6620133 105.69999
36200950000 -2.6560609 105.83897
36400900000 -2.6763897 104.47024
36600850000 -2.7273066 103.73061
36800800000 -2.6772723 102.77197
37000750000 -2.6805992 101.98826
37200700000 -2.6677208 101.37334
37400650000 -2.6473672 100.58977
37600600000 -2.6953287 100.32178
37800550000 -2.6662271 98.997597
38000500000 -2.712857 98.166618
38200450000 -2.5890982 98.003334
38400400000 -2.7071068 96.854744
38600350000 -2.5978754 96.376884
38800300000 -2.6157246 95.260101
39000250000 -2.5980175 94.842064
39200200000 -2.6297569 93.804031
39400150000 -2.637712 93.038345
39600100000 -2.4917207 92.282028
39800050000 -2.5845702 91.473381
40000000000 -2.5486271 90.369911
