!Agilent Technologies,N5227A,US51270434,A.10.00.00
!Agilent N5227A: A.10.00.00
!Date: Monday, January 26, 2026 17:30:56
!Correction: S11(Full 1 Port(1)) 
!S1P File: Measurement: S11:
# Hz S  dB   R 50
10000000 -15.498686 -1.3017229
209950000 -15.227057 -2.3191266
409900000 -15.222015 -5.0288763
609850000 -15.172803 -7.7325501
809800000 -15.1381 -10.597671
1009750000 -15.060216 -13.020703
1209700000 -15.076211 -15.546255
1409650000 -14.99568 -18.390436
1609600000 -14.937117 -20.70896
1809550000 -14.870069 -23.295927
2009500000 -14.824402 -25.865974
2209450000 -14.690611 -28.609844
2409400000 -14.631647 -30.440845
2609350000 -14.58075 -33.211739
2809300000 -14.45684 -35.636871
3009250000 -14.319072 -37.88422
3209200000 -14.273343 -39.970623
3409150000 -14.187898 -42.5047
3609100000 -13.971631 -44.697624
3809050000 -13.938592 -46.763828
4009000000 -13.803529 -49.237881
4208950000 -13.711885 -51.206219
4408900000 -13.531761 -53.166767
4608850000 -13.486495 -55.120667
4808800000 -13.285116 -57.563461
5008750000 -13.129954 -58.885563
5208700000 -13.053871 -60.985359
5408650000 -12.895164 -63.128708
5608600000 -12.72828 -65.128334
5808550000 -12.58075 -66.315773
6008500000 -12.546635 -68.706734
6208450000 -12.317624 -70.432167
6408400000 -12.214362 -72.098778
6608350000 -12.077257 -73.538902
6808300000 -11.98726 -75.730865
7008250000 -11.77966 -77.297096
7208200000 -11.686717 -78.567535
7408150000 -11.555902 -80.727722
7608100000 -11.392052 -82.100174
7808050000 -11.261435 -83.750206
8008000000 -11.15535 -84.991051
8207950000 -11.016427 -87.215485
8407900000 -10.839522 -88.088379
8607850000 -10.771684 -89.777725
8807800000 -10.623369 -91.455086
9007750000 -10.465446 -92.896217
9207700000 -10.31989 -93.963905
9407650000 -10.280765 -95.495049
9607600000 -10.095941 -97.358818
9807550000 -9.9666042 -98.285385
10007500000 -9.8620415 -99.698944
10207450000 -9.808857 -101.28242
10407400000 -9.6000347 -102.74338
10607350000 -9.5183392 -103.68621
10807300000 -9.4363651 -105.41596
11007250000 -9.2648325 -106.63544
11207200000 -9.1798277 -107.78187
11407150000 -9.092515 -109.13683
11607100000 -9.0038042 -110.93465
11807050000 -8.7868052 -111.86423
12007000000 -8.7548933 -112.99158
12206950000 -8.6437683 -114.44051
12406900000 -8.5021744 -115.86623
12606850000 -8.3835802 -116.65237
12806800000 -8.335886 -118.01415
13006750000 -8.2202206 -119.65374
13206700000 -8.0536861 -120.51798
13406650000 -8.0154448 -121.74129
13606600000 -7.9426179 -122.99175
13806550000 -7.7994285 -124.39857
14006500000 -7.7110677 -125.10648
14206450000 -7.6744823 -126.68549
14406400000 -7.5313244 -127.98949
14606350000 -7.4271979 -128.66182
14806300000 -7.4031768 -130.06635
15006250000 -7.3145461 -131.60274
15206200000 -7.1087461 -132.86229
15406150000 -7.0610495 -133.25325
15606100000 -7.0610962 -135.05405
15806050000 -6.9108744 -136.36455
16006000000 -6.7591128 -137.28699
16205950000 -6.7542505 -138.13655
16405900000 -6.6678886 -139.88853
16605850000 -6.4911699 -140.70941
16805800000 -6.4958076 -141.53703
17005750000 -6.4276543 -143.15048
17205700000 -6.2912998 -144.36685
17405650000 -6.1361585 -144.95206
17605600000 -6.2360935 -145.90627
17805550000 -6.1475992 -147.83443
18005500000 -5.9685225 -148.66502
18205450000 -5.9474764 -149.25386
18405400000 -5.9788656 -150.74799
18605350000 -5.8284278 -152.41165
18805300000 -5.6635032 -152.89439
19005250000 -5.7573075 -153.85545
19205200000 -5.6568961 -155.50398
19405150000 -5.530828 -156.69493
19605100000 -5.4727368 -157.21461
19805050000 -5.4856205 -158.73602
20005000000 -5.2932982 -159.90601
20204950000 -5.2562184 -160.60028
20404900000 -5.2873292 -161.71526
20604850000 -5.1731181 -163.33371
20804800000 -4.9752774 -164.36104
21004750000 -5.0271716 -164.42725
21204700000 -5.1112881 -166.31613
21404650000 -4.928854 -167.81276
21604600000 -4.7840819 -168.33653
21804550000 -4.9049959 -168.7892
22004500000 -4.8669343 -170.74837
22204450000 -4.718123 -171.94992
22404400000 -4.6902723 -172.21974
22604350000 -4.7213225 -173.84019
22804300000 -4.6112337 -174.98032
23004250000 -4.5145359 -176.06398
23204200000 -4.5529933 -176.51979
23404150000 -4.4757586 -178.47308
23604100000 -4.3733144 -179.21301
23804050000 -4.3781714 -179.80829
24004000000 -4.3613873 178.83781
24203950000 -4.2786655 177.22481
24403900000 -4.1658401 176.84991
24603850000 -4.2725782 176.10097
24803800000 -4.1520896 174.16669
25003750000 -4.1029215 173.33315
25203700000 -4.0384979 172.99313
25403650000 -4.1161251 171.86194
25603600000 -4.0213337 170.13257
25803550000 -3.9452195 169.50139
26003500000 -3.97524 168.69984
26203450000 -3.9061444 167.27017
26403400000 -3.9022691 166.21591
26603350000 -3.8188434 165.55119
26803300000 -3.9152868 164.15755
27003250000 -3.7396595 162.97638
27203200000 -3.7699504 162.62961
27403150000 -3.7592168 161.38164
27603100000 -3.7141192 160.16951
27803050000 -3.6295991 159.16635
28003000000 -3.5903771 158.91519
28202950000 -3.6404586 157.07767
28402900000 -3.5381405 156.22133
28602850000 -3.5494907 155.29437
28802800000 -3.5544281 154.6403
29002750000 -3.539881 152.87155
29202700000 -3.4796739 152.50331
29402650000 -3.464628 151.85568
29602600000 -3.4977531 150.35094
29802550000 -3.4274552 149.68669
30002500000 -3.4335372 148.46172
30202450000 -3.4014254 147.85893
30402400000 -3.3607244 146.29472
30602350000 -3.329998 145.91933
30802300000 -3.3381176 144.80824
31002250000 -3.291507 143.35532
31202200000 -3.2200301 143.10632
31402150000 -3.2262108 142.24718
31602100000 -3.2853932 141.57498
31802050000 -3.2122898 139.46748
32002000000 -3.1405325 139.75444
32201950000 -3.1754708 138.48361
32401900000 -3.2153671 137.23991
32601850000 -3.1295531 136.2821
32801800000 -3.1114919 135.64807
33001750000 -3.1711621 134.82108
33201700000 -3.0747309 133.38658
33401650000 -3.1006885 132.93291
33601600000 -3.0033226 131.76259
33801550000 -3.0906322 130.86382
34001500000 -2.945096 129.97444
34201450000 -3.0194068 128.92804
34401400000 -2.9928555 128.04205
34601350000 -2.9448435 126.87101
34801300000 -2.9816523 126.85645
35001250000 -2.9524698 125.20664
35201200000 -2.9596753 124.21781
35401150000 -2.7896287 123.62838
35601100000 -2.896652 123.12162
35801050000 -2.9233277 122.10772
36001000000 -2.8860977 120.24409
36200950000 -2.8281147 120.3037
36400900000 -2.8804898 118.75646
36600850000 -2.9073708 117.98923
36800800000 -2.8439798 116.8727
37000750000 -2.8667235 116.00993
37200700000 -2.8398027 115.34205
37400650000 -2.8094811 114.26035
37600600000 -2.8527963 113.96915
37800550000 -2.8108377 112.75055
38000500000 -2.8747978 111.77753
38200450000 -2.7283061 111.33114
38400400000 -2.8500731 110.29424
38600350000 -2.7019191 109.72845
38800300000 -2.7473834 108.50592
39000250000 -2.7313061 107.95944
39200200000 -2.7443347 106.96214
39400150000 -2.7494872 106.27678
39600100000 -2.5823739 105.13943
39800050000 -2.6542373 104.32574
40000000000 -2.6262956 103.15447
