!Agilent Technologies,N5227A,US51270434,A.10.00.00
!Agilent N5227A: A.10.00.00
!Date: Monday, January 26, 2026 17:31:17
!Correction: S11(Full 1 Port(1)) 
!S1P File: Measurement: S11:
# Hz S  dB   R 50
10000000 -14.473738 -0.85072875
209950000 -14.238087 -2.0318668
409900000 -14.263696 -4.1760612
609850000 -14.239243 -6.3922496
809800000 -14.232312 -8.6871796
1009750000 -14.176445 -10.619143
1209700000 -14.207859 -12.694206
1409650000 -14.157275 -15.058817
1609600000 -14.123995 -16.981247
1809550000 -14.088144 -19.069284
2009500000 -14.066574 -21.206766
2209450000 -13.976661 -23.530542
2409400000 -13.938914 -25.097099
2609350000 -13.926167 -27.408382
2809300000 -13.843589 -29.434086
3009250000 -13.753376 -31.377911
3209200000 -13.730062 -33.14917
3409150000 -13.693091 -35.361546
3609100000 -13.517271 -37.327023
3809050000 -13.52574 -39.069279
4009000000 -13.429374 -41.350647
4208950000 -13.384769 -43.062889
4408900000 -13.235456 -44.913563
4608850000 -13.220757 -46.53231
4808800000 -13.079106 -48.773659
5008750000 -12.959468 -50.120636
5208700000 -12.91636 -51.916828
5408650000 -12.806611 -53.865883
5608600000 -12.681145 -55.842857
5808550000 -12.53947 -56.93679
6008500000 -12.56507 -59.049042
6208450000 -12.36102 -60.833416
6408400000 -12.281929 -62.347683
6608350000 -12.175834 -63.638737
6808300000 -12.129412 -65.789345
7008250000 -11.953197 -67.394394
7208200000 -11.872564 -68.451965
7408150000 -11.794349 -70.611214
7608100000 -11.650002 -71.934212
7808050000 -11.543252 -73.582237
8008000000 -11.459607 -74.728317
8207950000 -11.361609 -76.927277
8407900000 -11.186793 -77.761719
8607850000 -11.147084 -79.401077
8807800000 -11.03086 -81.013237
9007750000 -10.891255 -82.43689
9207700000 -10.757478 -83.538345
9407650000 -10.73932 -84.905128
9607600000 -10.579721 -86.917229
9807550000 -10.457989 -87.718239
10007500000 -10.368528 -89.079689
10207450000 -10.344527 -90.56089
10407400000 -10.147717 -92.193382
10607350000 -10.070986 -92.985085
10807300000 -10.008674 -94.681664
11007250000 -9.8577156 -96.021194
11207200000 -9.7753649 -97.045914
11407150000 -9.6972504 -98.343613
11607100000 -9.6436596 -100.16486
11807050000 -9.4300575 -101.18216
12007000000 -9.3987751 -102.2295
12206950000 -9.3088217 -103.64186
12406900000 -9.1841488 -105.15406
12606850000 -9.0668068 -105.87386
12806800000 -9.0264759 -107.16277
13006750000 -8.9350557 -108.8932
13206700000 -8.7648115 -109.7398
13406650000 -8.7293377 -110.84471
13606600000 -8.6665268 -112.12527
13806550000 -8.5410728 -113.59488
14006500000 -8.4303617 -114.18714
14206450000 -8.4275284 -115.75539
14406400000 -8.2687082 -117.0631
14606350000 -8.1733942 -117.71539
14806300000 -8.1544313 -119.07101
15006250000 -8.0812387 -120.61108
15206200000 -7.8863082 -122.0143
15406150000 -7.8089075 -122.26487
15606100000 -7.8365602 -123.96434
15806050000 -7.6963415 -125.39381
16006000000 -7.5361676 -126.37089
16205950000 -7.5314713 -127.09768
16405900000 -7.4666986 -128.88708
16605850000 -7.2708592 -129.80136
16805800000 -7.2651052 -130.44923
17005750000 -7.2231317 -132.14981
17205700000 -7.0780716 -133.43115
17405650000 -6.9067078 -133.99947
17605600000 -7.0090275 -134.70343
17805550000 -6.9451361 -136.74568
18005500000 -6.7552919 -137.64902
18205450000 -6.7073159 -138.09322
18405400000 -6.7540088 -139.56073
18605350000 -6.6269484 -141.35098
18805300000 -6.4335423 -141.847
19005250000 -6.5313797 -142.6091
19205200000 -6.4447622 -144.32985
19405150000 -6.317246 -145.60139
19605100000 -6.2328262 -146.03639
19805050000 -6.2663407 -147.53198
20005000000 -6.0729613 -148.87863
20204950000 -6.0153098 -149.44083
20404900000 -6.0475745 -150.48296
20604850000 -5.954309 -152.18019
20804800000 -5.7250957 -153.27477
21004750000 -5.7452316 -153.1427
21204700000 -5.8659091 -154.97977
21404650000 -5.6838131 -156.68921
21604600000 -5.5085015 -157.24292
21804550000 -5.6155758 -157.44492
22004500000 -5.6026707 -159.4769
22204450000 -5.4469609 -160.77808
22404400000 -5.3864579 -161.06889
22604350000 -5.4461322 -162.59314
22804300000 -5.3332858 -163.79243
23004250000 -5.21875 -164.965
23204200000 -5.2394109 -165.26654
23404150000 -5.2005849 -167.28133
23604100000 -5.0526199 -168.09897
23804050000 -5.0528727 -168.63011
24004000000 -5.0471911 -169.94423
24203950000 -4.9552445 -171.61371
24403900000 -4.814208 -172.10645
24603850000 -4.927547 -172.65938
24803800000 -4.8243647 -174.71469
25003750000 -4.7404895 -175.589
25203700000 -4.6614914 -175.92422
25403650000 -4.7497468 -176.94508
25603600000 -4.6649866 -178.74599
25803550000 -4.5701809 -179.47423
26003500000 -4.5864043 179.85197
26203450000 -4.5172796 178.35521
26403400000 -4.5024662 177.28525
26603350000 -4.4187326 176.53061
26803300000 -4.5071158 175.33466
27003250000 -4.327651 173.91722
27203200000 -4.3428826 173.63666
27403150000 -4.3332934 172.37657
27603100000 -4.2764144 171.13168
27803050000 -4.19345 170.07669
28003000000 -4.1418457 169.82355
28202950000 -4.1946673 168.02238
28402900000 -4.0800457 167.01909
28602850000 -4.0746131 166.08878
28802800000 -4.0759306 165.53459
29002750000 -4.0721955 163.72041
29202700000 -3.9779372 163.20154
29402650000 -3.9494801 162.63043
29602600000 -4.0005527 161.14481
29802550000 -3.9091575 160.3477
30002500000 -3.9191108 159.12498
30202450000 -3.8732443 158.48502
30402400000 -3.8451293 156.89314
30602350000 -3.7884712 156.47884
30802300000 -3.8011394 155.3721
31002250000 -3.7561243 153.83441
31202200000 -3.6723237 153.60237
31402150000 -3.6423388 152.62563
31602100000 -3.7121382 152.07904
31802050000 -3.6508777 149.74843
32002000000 -3.5640862 150.00658
32201950000 -3.5886648 148.85526
32401900000 -3.6323333 147.6093
32601850000 -3.5209579 146.46803
32801800000 -3.4925103 145.73244
33001750000 -3.5560303 145.01219
33201700000 -3.4548495 143.40532
33401650000 -3.4886875 143.03668
33601600000 -3.3649387 141.78984
33801550000 -3.4581573 141.00578
34001500000 -3.3169491 139.9064
34201450000 -3.3747494 138.94728
34401400000 -3.3250437 137.97327
34601350000 -3.2925513 136.62198
34801300000 -3.2923923 136.69482
35001250000 -3.2812195 134.8311
35201200000 -3.2921448 133.89566
35401150000 -3.0923247 133.09111
35601100000 -3.2170911 132.65155
35801050000 -3.2101319 131.81023
36001000000 -3.1900215 129.74969
36200950000 -3.1181953 129.7287
36400900000 -3.1521974 128.25464
36600850000 -3.2174838 127.52944
36800800000 -3.1306348 126.20309
37000750000 -3.1458626 125.3596
37200700000 -3.1101682 124.59647
37400650000 -3.0847275 123.49064
37600600000 -3.0881109 123.26196
37800550000 -3.0885074 121.88332
38000500000 -3.1263909 120.94002
38200450000 -2.97069 120.2304
38400400000 -3.0837936 119.41502
38600350000 -2.9401467 118.51848
38800300000 -2.9768336 117.24312
39000250000 -2.8952184 116.99861
39200200000 -2.9802854 115.71229
39400150000 -2.9681742 114.89465
39600100000 -2.8057907 113.73692
39800050000 -2.8740346 113.14359
40000000000 -2.8543177 111.83356
