!Agilent Technologies,N5227A,US51270434,A.10.00.00
!Agilent N5227A: A.10.00.00
!Date: Monday, January 26, 2026 17:28:52
!Correction: S11(Full 1 Port(1)) 
!S1P File: Measurement: S11:
# Hz S  dB   R 50
10000000 -16.421068 -0.99500757
209950000 -16.148046 -7.4360056
409900000 -16.020603 -14.572439
609850000 -15.788425 -21.648308
809800000 -15.506441 -28.548761
1009750000 -15.154469 -34.775429
1209700000 -14.851344 -40.916817
1409650000 -14.4167 -46.733288
1609600000 -14.035705 -51.860325
1809550000 -13.621588 -56.916718
2009500000 -13.243611 -61.632423
2209450000 -12.780299 -65.898895
2409400000 -12.448729 -69.733215
2609350000 -12.058135 -73.836754
2809300000 -11.66112 -77.43438
3009250000 -11.274953 -80.684952
3209200000 -10.958712 -83.937859
3409150000 -10.613997 -87.199341
3609100000 -10.249508 -89.829262
3809050000 -9.9880896 -92.936798
4009000000 -9.6693773 -95.646248
4208950000 -9.4060574 -98.282722
4408900000 -9.1165619 -100.6018
4608850000 -8.891058 -103.17805
4808800000 -8.58671 -105.49905
5008750000 -8.360507 -107.51781
5208700000 -8.1405439 -110.00298
5408650000 -7.9014406 -112.22782
5608600000 -7.6659255 -114.26335
5808550000 -7.4867783 -116.02874
6008500000 -7.3070827 -118.42222
6208450000 -7.0830202 -120.1184
6408400000 -6.922883 -122.10409
6608350000 -6.7656527 -123.84123
6808300000 -6.5961165 -125.99036
7008250000 -6.4053979 -127.50917
7208200000 -6.2847023 -129.29407
7408150000 -6.1103053 -131.20319
7608100000 -5.9709978 -132.6947
7808050000 -5.8303981 -134.4137
8008000000 -5.7298942 -136.04933
8207950000 -5.556942 -137.73715
8407900000 -5.4428744 -138.99779
8607850000 -5.3401856 -140.86026
8807800000 -5.2099514 -142.34776
9007750000 -5.0798206 -143.8299
9207700000 -4.9887476 -145.21463
9407650000 -4.9255824 -146.9642
9607600000 -4.777895 -148.39246
9807550000 -4.700954 -149.70828
10007500000 -4.6283565 -151.24365
10207450000 -4.5600719 -152.81769
10407400000 -4.4367847 -153.97073
10607350000 -4.3992219 -155.35962
10807300000 -4.3143816 -156.8922
11007250000 -4.2200379 -157.98895
11207200000 -4.161859 -159.34752
11407150000 -4.1156383 -160.79686
11607100000 -4.0147152 -162.22485
11807050000 -3.9274395 -163.10445
12007000000 -3.9089916 -164.56435
12206950000 -3.8432326 -165.84642
12406900000 -3.7536352 -167.08847
12606850000 -3.7312565 -168.189
12806800000 -3.702939 -169.54207
13006750000 -3.615097 -170.84531
13206700000 -3.5512388 -171.82196
13406650000 -3.5376976 -173.24197
13606600000 -3.5143538 -174.44719
13806550000 -3.4263394 -175.55093
14006500000 -3.4229558 -176.61681
14206450000 -3.3886211 -178.01196
14406400000 -3.315176 -178.99321
14606350000 -3.3065605 -179.99174
14806300000 -3.2948613 178.57799
15006250000 -3.2244759 177.41145
15206200000 -3.131186 176.59807
15406150000 -3.1926463 175.61192
15606100000 -3.1621962 174.04704
15806050000 -3.0780778 173.12761
16006000000 -3.0319185 172.2928
16205950000 -3.0853004 171.13243
16405900000 -3.0099022 169.86797
16605850000 -2.9529562 169.1606
16805800000 -3.008286 168.02367
17005750000 -2.9400046 166.7934
17205700000 -2.8739581 165.8988
17405650000 -2.869961 165.16902
17605600000 -2.9632592 163.83286
17805550000 -2.8679531 162.63193
18005500000 -2.8246384 161.96329
18205450000 -2.8738937 161.03311
18405400000 -2.8665931 159.71822
18605350000 -2.7629352 158.74727
18805300000 -2.7721987 158.25169
19005250000 -2.8397536 156.90594
19205200000 -2.7546566 155.78781
19405150000 -2.7106814 154.98509
19605100000 -2.7682967 154.28336
19805050000 -2.7384489 152.93346
20005000000 -2.6482277 152.20636
20204950000 -2.7164257 151.43996
20404900000 -2.7345011 150.29138
20604850000 -2.6453927 149.07767
20804800000 -2.5931768 148.48239
21004750000 -2.7458956 147.89803
21204700000 -2.7100534 146.24785
21404650000 -2.6236243 145.36041
21604600000 -2.6327221 145.10661
21804550000 -2.7563248 143.96445
22004500000 -2.6766939 142.70111
22204450000 -2.6429117 142.09547
22404400000 -2.7067401 141.65663
22604350000 -2.6841605 140.05226
22804300000 -2.6524627 139.32722
23004250000 -2.6353791 138.76518
23204200000 -2.7165809 137.86766
23404150000 -2.6204939 136.46594
23604100000 -2.6287954 136.14024
23804050000 -2.6790926 135.51822
24004000000 -2.6642568 134.15627
24203950000 -2.6196549 133.18712
24403900000 -2.6258614 133.10706
24603850000 -2.7285063 131.92314
24803800000 -2.6228395 130.72202
25003750000 -2.6500628 130.23027
25203700000 -2.6697998 129.89403
25403650000 -2.7195444 128.52664
25603600000 -2.6439345 127.60677
25803550000 -2.6477768 127.16401
26003500000 -2.6926632 126.119
26203450000 -2.6653447 125.18797
26403400000 -2.6762486 124.39257
26603350000 -2.682292 123.8976
26803300000 -2.7425909 122.3581
27003250000 -2.638392 122.05346
27203200000 -2.7335851 121.63092
27403150000 -2.709887 120.45255
27603100000 -2.7082438 119.69853
27803050000 -2.6657045 119.2705
28003000000 -2.6987638 118.89384
28202950000 -2.7122679 117.10757
28402900000 -2.6759734 116.79658
28602850000 -2.710871 115.99608
28802800000 -2.7664402 115.28831
29002750000 -2.7206287 114.0746
29202700000 -2.7396541 113.95831
29402650000 -2.7695119 113.34824
29602600000 -2.7858648 112.1125
29802550000 -2.7868593 111.82437
30002500000 -2.7835181 110.79519
30202450000 -2.8006382 110.25576
30402400000 -2.7570598 109.2047
30602350000 -2.7834313 109.05671
30802300000 -2.7834289 108.00399
31002250000 -2.7378469 106.96416
31202200000 -2.7386637 106.89736
31402150000 -2.7550871 106.3255
31602100000 -2.8548186 105.45404
31802050000 -2.7276862 104.25528
32002000000 -2.778554 104.42434
32201950000 -2.7958272 103.35966
32401900000 -2.8236091 102.28265
32601850000 -2.7641003 101.83182
32801800000 -2.8004568 101.17464
33001750000 -2.858501 100.26484
33201700000 -2.7419825 99.615944
33401650000 -2.8229008 98.952583
33601600000 -2.7666574 98.4338
33801550000 -2.8263659 97.259979
34001500000 -2.7240345 97.182449
34201450000 -2.8079553 96.068588
34401400000 -2.8001208 95.273193
34601350000 -2.7662508 94.631401
34801300000 -2.8542626 94.529106
35001250000 -2.8048549 93.108429
35201200000 -2.8234892 92.416603
35401150000 -2.7063856 92.383621
35601100000 -2.8413599 91.583275
35801050000 -2.879776 90.91526
36001000000 -2.7785554 89.534195
36200950000 -2.8110552 89.671082
36400900000 -2.8512776 88.337784
36600850000 -2.8879251 87.804008
36800800000 -2.823849 87.080765
37000750000 -2.8507056 86.199905
37200700000 -2.839417 85.863922
37400650000 -2.7852638 85.068283
37600600000 -2.8723865 84.858475
37800550000 -2.8315463 83.749054
38000500000 -2.882688 82.975418
38200450000 -2.8021991 82.968864
38400400000 -2.8794403 81.842125
38600350000 -2.8139148 81.546104
38800300000 -2.8209729 80.383148
39000250000 -2.8265247 80.226852
39200200000 -2.8455715 79.300781
39400150000 -2.8622019 78.608444
39600100000 -2.7284546 77.962097
39800050000 -2.8369234 77.160019
40000000000 -2.7900748 76.202568
