!Agilent Technologies,N5227A,US51270434,A.10.00.00
!Agilent N5227A: A.10.00.00
!Date: Wednesday, April 01, 2026 16:42:36
!Correction: S11(Full 1 Port(1)) 
!S1P File: Measurement: S11:
# Hz S  dB   R 50
10000000 -0.023613038 0.35558411
209950000 0.0054178778 -0.30002335
409900000 0.0071665007 -0.72551912
609850000 0.0075013223 -1.1181427
809800000 0.0050498224 -1.4284507
1009750000 0.0042986958 -1.7638358
1209700000 0.0017706968 -2.0897772
1409650000 0.0061870669 -2.4302013
1609600000 0.0062368051 -2.8078091
1809550000 0.0041618333 -3.1654806
2009500000 -0.0033056892 -3.5238781
2209450000 -0.0059919553 -3.8800862
2409400000 -0.011035187 -4.1426554
2609350000 -0.0066718482 -4.4929862
2809300000 -0.016431546 -4.7653575
3009250000 -0.010457726 -5.1459336
3209200000 -0.013362559 -5.4359708
3409150000 -0.0040676389 -5.7964067
3609100000 -0.00273849 -6.1585417
3809050000 -0.0076172734 -6.5439806
4009000000 -0.0081229284 -6.8938642
4208950000 -0.015972691 -7.2028394
4408900000 -0.012177962 -7.5656061
4608850000 -0.017544376 -7.8908296
4808800000 -0.010765806 -8.2008457
5008750000 -0.0087154061 -8.4983301
5208700000 -0.0060992064 -8.8639679
5408650000 -0.0066461922 -9.180953
5608600000 -0.0012733982 -9.6009932
5808550000 0.0021283044 -9.9324989
6008500000 -0.011740992 -10.247292
6208450000 0.0055063604 -10.568939
6408400000 -0.0073145903 -10.972402
6608350000 0.012622383 -11.274884
6808300000 -0.0062617981 -11.646087
7008250000 0.0060240952 -11.967392
7208200000 0.00019670927 -12.324821
7408150000 0.0028000893 -12.712569
7608100000 -0.0071935332 -13.023001
7808050000 -0.001078364 -13.394707
8008000000 -0.00014450662 -13.703523
8207950000 -0.0048300833 -14.088892
8407900000 0.0048711519 -14.374625
8607850000 -0.0091028251 -14.779584
8807800000 -0.0084574176 -15.102501
9007750000 -0.013969522 -15.463102
9207700000 -0.00051536266 -15.776544
9407650000 -0.0085308831 -16.09621
9607600000 -0.0016189384 -16.464447
9807550000 -0.015535037 -16.739891
10007500000 1.3755515e-005 -17.152479
10207450000 -0.013867324 -17.335886
10407400000 -0.0095540229 -17.806479
10607350000 -0.017177695 -18.039116
10807300000 -0.014449827 -18.483927
11007250000 -0.013502314 -18.752302
11207200000 -0.019925287 -19.051369
11407150000 -0.022962453 -19.441118
11607100000 -0.033015922 -19.764641
11807050000 -0.013378575 -20.140203
12007000000 -0.037253093 -20.422321
12206950000 -0.016913259 -20.774221
12406900000 -0.032654364 -21.143396
12606850000 -0.019659685 -21.481157
12806800000 -0.038725141 -21.774101
13006750000 -0.028927708 -22.15152
13206700000 -0.033647317 -22.482285
13406650000 -0.031464249 -22.870934
13606600000 -0.012515741 -23.114017
13806550000 -0.0368273 -23.499323
14006500000 -0.017656311 -23.784554
14206450000 -0.029690316 -24.232006
14406400000 -0.0071326504 -24.463861
14606350000 -0.022523791 -24.876575
14806300000 -0.021824576 -25.2689
15006250000 -0.027793378 -25.572966
15206200000 -0.028982222 -25.904976
15406150000 -0.022098241 -26.304024
15606100000 -0.031546518 -26.688564
15806050000 -0.020747365 -26.948242
16006000000 -0.031433273 -27.379908
16205950000 -0.019905521 -27.634628
16405900000 -0.028663488 -28.036934
16605850000 -0.019990711 -28.318045
16805800000 -0.023945486 -28.647934
17005750000 -0.03044197 -29.037258
17205700000 -0.016930941 -29.317366
17405650000 -0.019580115 -29.74394
17605600000 -0.010772538 -29.847292
17805550000 -0.021289919 -30.400312
18005500000 -0.011007041 -30.575066
18205450000 -0.018685473 -31.047195
18405400000 -0.011460244 -31.225382
18605350000 -0.015601291 -31.628466
18805300000 -0.012751891 -31.966022
19005250000 -0.0083669852 -32.126072
19205200000 0.00045450695 -32.594734
19405150000 -0.0073417481 -32.785572
19605100000 -0.0074288067 -33.271698
19805050000 -0.0066795703 -33.503944
20005000000 0.0080682198 -33.956604
20204950000 0.00074745796 -34.099724
20404900000 0.0039853039 -34.595341
20604850000 0.018559802 -34.871403
20804800000 0.0095203584 -35.213665
21004750000 0.040855922 -35.412277
21204700000 0.013058528 -35.829929
21404650000 0.037255734 -36.124252
21604600000 0.017794594 -36.65987
21804550000 0.072203293 -36.620529
22004500000 0.028900351 -37.291168
22204450000 0.073790789 -37.329102
22404400000 0.04378162 -38.035275
22604350000 0.024803607 -38.130486
22804300000 0.043902453 -38.493462
23004250000 0.042216334 -38.889122
23204200000 0.057064906 -39.38805
23404150000 0.04681151 -39.725765
23604100000 0.05892453 -40.036434
23804050000 0.055060793 -40.492508
24004000000 0.064404085 -40.72065
24203950000 0.067455396 -41.131237
24403900000 0.061819274 -41.447655
24603850000 0.070719019 -41.790024
24803800000 0.065708101 -42.231411
25003750000 0.084110476 -42.497135
25203700000 0.098628998 -42.983017
25403650000 0.08900395 -43.048813
25603600000 0.096350975 -43.64093
25803550000 0.084102578 -43.860519
26003500000 0.098457478 -44.335251
26203450000 0.1024473 -44.573689
26403400000 0.11510815 -44.878517
26603350000 0.096146315 -45.429722
26803300000 0.11016395 -45.696236
27003250000 0.11483311 -46.154282
27203200000 0.11588672 -46.244434
27403150000 0.11292802 -46.838612
27603100000 0.10917247 -47.201347
27803050000 0.1283538 -47.513126
28003000000 0.11622391 -47.858646
28202950000 0.13610573 -48.104652
28402900000 0.17195916 -48.582397
28602850000 0.12580872 -48.82029
28802800000 0.17055708 -49.292309
29002750000 0.12210574 -49.569302
29202700000 0.18195823 -49.927608
29402650000 0.11921914 -50.448044
29602600000 0.21205553 -50.536022
29802550000 0.1366705 -51.027889
30002500000 0.15502799 -51.306286
30202450000 0.14210565 -51.857239
30402400000 0.15094422 -52.273788
30602350000 0.19361153 -52.253075
30802300000 0.11630915 -52.884808
31002250000 0.15459204 -53.302284
31202200000 0.1588271 -53.812492
31402150000 0.16933174 -53.701736
31602100000 0.16859627 -54.473461
31802050000 0.13733545 -54.627346
32002000000 0.17965905 -55.277168
32201950000 0.17074844 -55.286709
32401900000 0.16055708 -55.612183
32601850000 0.17217793 -56.152702
32801800000 0.18529212 -56.246067
33001750000 0.2490032 -56.909443
33201700000 0.16174188 -56.914524
33401650000 0.20484261 -57.250618
33601600000 0.13600233 -58.023571
33801550000 0.28148451 -58.196732
34001500000 0.19394428 -58.415939
34201450000 0.19163604 -58.908092
34401400000 0.16445565 -59.433205
34601350000 0.19367638 -59.714085
34801300000 0.23048593 -60.286842
35001250000 0.1891579 -60.401127
35201200000 0.20902438 -61.004116
35401150000 0.18659215 -61.628872
35601100000 0.23240861 -61.57859
35801050000 0.25608233 -61.979248
36001000000 0.21714811 -62.184551
36200950000 0.24190435 -63.027557
36400900000 0.20511313 -63.231159
36600850000 0.28674111 -63.336018
36800800000 0.18761201 -63.755001
37000750000 0.22290234 -63.988369
37200700000 0.24800876 -64.858398
37400650000 0.2188998 -64.584633
37600600000 0.26056251 -65.767494
37800550000 0.19933066 -65.268944
38000500000 0.2542814 -66.269058
38200450000 0.2010012 -66.629639
38400400000 0.26773939 -66.953415
38600350000 0.18793505 -68.051537
38800300000 0.22558539 -67.909119
39000250000 0.24076299 -68.806831
39200200000 0.23722954 -68.796852
39400150000 0.25499639 -69.552338
39600100000 0.203336 -69.892075
39800050000 0.24075301 -70.4133
40000000000 0.23272337 -70.779434
