!Agilent Technologies,N5227A,US51270434,A.10.00.00
!Agilent N5227A: A.10.00.00
!Date: Wednesday, April 01, 2026 16:43:31
!Correction: S11(Full 1 Port(1)) 
!S1P File: Measurement: S11:
# Hz S  dB   R 50
10000000 -0.032037761 0.50158066
209950000 0.01002117 -0.30471933
409900000 0.0085561555 -0.70485538
609850000 0.0098316418 -1.1080917
809800000 0.0070567611 -1.4049873
1009750000 0.0043834704 -1.7423856
1209700000 0.0027737843 -2.084784
1409650000 0.0053495937 -2.4267187
1609600000 0.01004103 -2.7923145
1809550000 0.0045474833 -3.1711092
2009500000 -0.00039538302 -3.5148413
2209450000 -0.0038429108 -3.861721
2409400000 -0.0093570584 -4.1472492
2609350000 -0.0070909923 -4.4766612
2809300000 -0.014221446 -4.7372608
3009250000 -0.0059639765 -5.1373057
3209200000 -0.0097439252 -5.4236097
3409150000 -2.6259224e-005 -5.7790809
3609100000 0.002212899 -6.1548605
3809050000 -0.0095602702 -6.5331163
4009000000 -0.0065722642 -6.8730192
4208950000 -0.010110143 -7.1919394
4408900000 -0.0094606793 -7.5725465
4608850000 -0.017052853 -7.8916912
4808800000 -0.0097666737 -8.1962395
5008750000 -0.0067709698 -8.4920425
5208700000 -0.00020640249 -8.8662548
5408650000 -0.002998366 -9.1793222
5608600000 -0.00072791229 -9.5887957
5808550000 0.0062832544 -9.9207201
6008500000 -0.0083638923 -10.259823
6208450000 0.0087170471 -10.558022
6408400000 -0.0015795754 -10.963863
6608350000 0.015170457 -11.264286
6808300000 -0.0083714398 -11.65102
7008250000 0.0049418849 -11.961313
7208200000 0.0037102129 -12.303414
7408150000 0.0055252891 -12.707936
7608100000 0.0007118067 -13.007159
7808050000 -0.0025980766 -13.404261
8008000000 0.0028843093 -13.724225
8207950000 -0.0060538859 -14.087076
8407900000 0.003507951 -14.355392
8607850000 -0.0092308335 -14.774305
8807800000 -0.0002746786 -15.089859
9007750000 -0.010735858 -15.44373
9207700000 0.0036913343 -15.745688
9407650000 -0.010091066 -16.080488
9607600000 0.0021078668 -16.46508
9807550000 -0.012564797 -16.693321
10007500000 -0.003912685 -17.122169
10207450000 -0.0016130095 -17.319227
10407400000 -0.0057701604 -17.775526
10607350000 -0.013022061 -18.021458
10807300000 -0.012035499 -18.456713
11007250000 -0.0099044275 -18.723423
11207200000 -0.016894575 -19.033831
11407150000 -0.018171338 -19.429422
11607100000 -0.029370027 -19.724226
11807050000 -0.014243716 -20.106792
12007000000 -0.03580676 -20.404762
12206950000 -0.011800152 -20.748589
12406900000 -0.035469044 -21.10708
12606850000 -0.018237213 -21.43635
12806800000 -0.037684247 -21.733721
13006750000 -0.023848079 -22.137344
13206700000 -0.02999595 -22.456461
13406650000 -0.028542103 -22.851263
13606600000 -0.007605528 -23.049919
13806550000 -0.038767189 -23.484863
14006500000 -0.016939333 -23.732504
14206450000 -0.027112536 -24.203499
14406400000 -0.0078453086 -24.472898
14606350000 -0.021088015 -24.846729
14806300000 -0.018491438 -25.214685
15006250000 -0.025309125 -25.571524
15206200000 -0.030906163 -25.86532
15406150000 -0.020151984 -26.28788
15606100000 -0.023917815 -26.679583
15806050000 -0.013333373 -26.958311
16006000000 -0.027443739 -27.399187
16205950000 -0.019354487 -27.630287
16405900000 -0.030223111 -28.050589
16605850000 -0.014412465 -28.303883
16805800000 -0.024431478 -28.688301
17005750000 -0.025955778 -29.035641
17205700000 -0.015672449 -29.31579
17405650000 -0.013789634 -29.743477
17605600000 -0.0022896531 -29.861155
17805550000 -0.013609039 -30.388437
18005500000 -0.013012134 -30.591244
18205450000 -0.011388623 -31.006422
18405400000 -0.00814653 -31.206202
18605350000 -0.0136043 -31.631863
18805300000 -0.012219209 -31.947033
19005250000 -0.0049300864 -32.129257
19205200000 0.0020733494 -32.572781
19405150000 -0.0049158805 -32.765888
19605100000 -0.0046174428 -33.264355
19805050000 -0.0077891829 -33.480137
20005000000 0.01117928 -33.917816
20204950000 0.0031990448 -34.074165
20404900000 0.005916324 -34.573273
20604850000 0.015397613 -34.828533
20804800000 0.01743781 -35.168285
21004750000 0.048578598 -35.370728
21204700000 0.0072764899 -35.804947
21404650000 0.041374598 -36.10762
21604600000 0.019736668 -36.641781
21804550000 0.065713905 -36.594738
22004500000 0.029008005 -37.262524
22204450000 0.068547115 -37.31562
22404400000 0.042761691 -37.988197
22604350000 0.015313694 -38.043964
22804300000 0.038861673 -38.442345
23004250000 0.043047458 -38.841442
23204200000 0.058751814 -39.33387
23404150000 0.051225211 -39.714039
23604100000 0.057901222 -39.983253
23804050000 0.056695405 -40.460567
24004000000 0.069239661 -40.678352
24203950000 0.070044547 -41.075558
24403900000 0.063535161 -41.440041
24603850000 0.073146477 -41.731731
24803800000 0.065616742 -42.21233
25003750000 0.086611904 -42.441212
25203700000 0.097835027 -42.937542
25403650000 0.085802607 -43.007202
25603600000 0.10028635 -43.611134
25803550000 0.079976916 -43.773533
26003500000 0.10422039 -44.297108
26203450000 0.10332049 -44.506065
26403400000 0.12071765 -44.831917
26603350000 0.10105904 -45.417629
26803300000 0.11578737 -45.673717
27003250000 0.11822278 -46.120247
27203200000 0.11888018 -46.194553
27403150000 0.11037389 -46.80928
27603100000 0.11502977 -47.168583
27803050000 0.13115633 -47.461891
28003000000 0.12250602 -47.857697
28202950000 0.14108649 -48.04879
28402900000 0.16340165 -48.591034
28602850000 0.12273084 -48.784325
28802800000 0.1808254 -49.224819
29002750000 0.12509453 -49.526554
29202700000 0.18384023 -49.983521
29402650000 0.12436485 -50.447548
29602600000 0.21216506 -50.500145
29802550000 0.1381869 -50.936901
30002500000 0.15508887 -51.158871
30202450000 0.14823459 -51.868767
30402400000 0.15430336 -52.234077
30602350000 0.19083503 -52.146713
30802300000 0.11672642 -52.868313
31002250000 0.16399358 -53.232586
31202200000 0.15802605 -53.813393
31402150000 0.15659665 -53.670322
31602100000 0.17580184 -54.41877
31802050000 0.12517464 -54.556313
32002000000 0.18775034 -55.206253
32201950000 0.17688237 -55.189037
32401900000 0.15460022 -55.492786
32601850000 0.16935529 -56.117115
32801800000 0.19669844 -56.281864
33001750000 0.25893673 -56.858501
33201700000 0.15418723 -56.865215
33401650000 0.20168234 -57.248867
33601600000 0.1178216 -58.009377
33801550000 0.29919043 -58.110241
34001500000 0.18477802 -58.457157
34201450000 0.20405307 -58.762112
34401400000 0.16493797 -59.396698
34601350000 0.19540776 -59.665932
34801300000 0.23195776 -60.248478
35001250000 0.19115996 -60.371319
35201200000 0.20792793 -60.949745
35401150000 0.18449235 -61.629414
35601100000 0.24327829 -61.491333
35801050000 0.26702106 -62.050255
36001000000 0.21299408 -61.932476
36200950000 0.24281077 -62.962452
36400900000 0.19995081 -63.132305
36600850000 0.29650146 -63.193108
36800800000 0.16523986 -63.50766
37000750000 0.22210583 -63.812725
37200700000 0.24356568 -64.745499
37400650000 0.22007571 -64.467224
37600600000 0.26469454 -65.578621
37800550000 0.22025783 -65.330009
38000500000 0.26828554 -66.126328
38200450000 0.1958476 -66.629669
38400400000 0.2718077 -66.8881
38600350000 0.19300377 -68.064667
38800300000 0.23519176 -67.65976
39000250000 0.23156609 -68.768463
39200200000 0.25494802 -68.669418
39400150000 0.25194514 -69.621971
39600100000 0.20342599 -69.776688
39800050000 0.25721315 -70.358742
40000000000 0.2314086 -70.544746
