!Agilent Technologies,N5227A,US51270434,A.10.00.00
!Agilent N5227A: A.10.00.00
!Date: Wednesday, April 01, 2026 16:44:01
!Correction: S11(Full 1 Port(1)) 
!S1P File: Measurement: S11:
# Hz S  dB   R 50
10000000 -0.021731758 0.61610407
209950000 0.010559913 -0.28195187
409900000 0.012554039 -0.68028551
609850000 0.0080971736 -1.0990493
809800000 0.0058674091 -1.4390502
1009750000 0.0099791968 -1.7162009
1209700000 0.0054639843 -2.0665293
1409650000 0.0022558086 -2.3920355
1609600000 0.01009555 -2.7854655
1809550000 0.0059054131 -3.1652718
2009500000 0.0011854577 -3.5200098
2209450000 0.00091958337 -3.8756168
2409400000 -0.0098051783 -4.1075206
2609350000 -0.007303169 -4.4424958
2809300000 -0.0144555 -4.7531486
3009250000 -0.0041972608 -5.1144676
3209200000 -0.0069069229 -5.3967142
3409150000 0.0042843213 -5.7706952
3609100000 0.0029813084 -6.1382523
3809050000 -0.0096112927 -6.5363069
4009000000 -0.0048249774 -6.8733191
4208950000 -0.013723758 -7.1832604
4408900000 -0.0074026729 -7.5554767
4608850000 -0.014220767 -7.8654318
4808800000 -0.0092840502 -8.1845217
5008750000 -0.0067969137 -8.4864273
5208700000 0.00053905364 -8.8528118
5408650000 -0.0052008005 -9.1714649
5608600000 0.0039894902 -9.5774832
5808550000 0.0094860019 -9.9007473
6008500000 -0.0035869249 -10.247542
6208450000 0.014494001 -10.54151
6408400000 -0.0064325114 -10.979551
6608350000 0.014329244 -11.259446
6808300000 -0.005154104 -11.63686
7008250000 0.0091702491 -11.962934
7208200000 0.0022106047 -12.321603
7408150000 0.006638098 -12.698536
7608100000 -0.00011163211 -13.012002
7808050000 0.00019916643 -13.409255
8008000000 0.0032361846 -13.68133
8207950000 0.0012836959 -14.083722
8407900000 0.0080366628 -14.362187
8607850000 -0.005853219 -14.777398
8807800000 0.0016115682 -15.081068
9007750000 -0.0090510873 -15.443077
9207700000 0.005392767 -15.75808
9407650000 -0.0051980307 -16.055862
9607600000 0.0021903308 -16.453991
9807550000 -0.013905563 -16.696072
10007500000 0.0039067245 -17.118633
10207450000 -0.0065959748 -17.276329
10407400000 -0.0037947339 -17.789124
10607350000 -0.013560471 -18.01618
10807300000 -0.0072408281 -18.430796
11007250000 -0.010098535 -18.715862
11207200000 -0.017661156 -19.009872
11407150000 -0.012212689 -19.416908
11607100000 -0.030350626 -19.695684
11807050000 -0.009248144 -20.097511
12007000000 -0.033063654 -20.380739
12206950000 -0.013065763 -20.722721
12406900000 -0.034717843 -21.092796
12606850000 -0.010939778 -21.414213
12806800000 -0.035078228 -21.744398
13006750000 -0.024183365 -22.118732
13206700000 -0.033437405 -22.437752
13406650000 -0.027482435 -22.817169
13606600000 -0.0093638571 -23.052729
13806550000 -0.033226177 -23.499229
14006500000 -0.01211738 -23.744534
14206450000 -0.028343534 -24.202248
14406400000 -0.0020014786 -24.427721
14606350000 -0.015472546 -24.838268
14806300000 -0.016734695 -25.197168
15006250000 -0.022442691 -25.535229
15206200000 -0.030101066 -25.854261
15406150000 -0.017996013 -26.284655
15606100000 -0.026695149 -26.651567
15806050000 -0.014746318 -26.972195
16006000000 -0.030545121 -27.392946
16205950000 -0.0206753 -27.618357
16405900000 -0.027617749 -28.047546
16605850000 -0.016053094 -28.330265
16805800000 -0.022022797 -28.667866
17005750000 -0.024155883 -29.060574
17205700000 -0.015993539 -29.312511
17405650000 -0.010377994 -29.724638
17605600000 -0.0077843736 -29.830742
17805550000 -0.015510263 -30.390373
18005500000 -0.004916816 -30.571169
18205450000 -0.011910801 -31.024448
18405400000 -0.010892122 -31.236856
18605350000 -0.012809631 -31.615307
18805300000 -0.0076778443 -31.942623
19005250000 -0.0044347062 -32.123428
19205200000 0.0056193736 -32.555973
19405150000 -0.0038535902 -32.744373
19605100000 -0.002831015 -33.26646
19805050000 -0.008972506 -33.480141
20005000000 0.017280348 -33.915661
20204950000 -0.0027296543 -34.064228
20404900000 0.0071669784 -34.551544
20604850000 0.017299492 -34.802185
20804800000 0.014553481 -35.181801
21004750000 0.049088288 -35.331379
21204700000 0.0095727947 -35.759983
21404650000 0.045547891 -36.083527
21604600000 0.021389436 -36.630146
21804550000 0.065481924 -36.531479
22004500000 0.031714644 -37.270287
22204450000 0.070804939 -37.242004
22404400000 0.045201853 -37.984592
22604350000 0.019487135 -38.039112
22804300000 0.049327381 -38.400867
23004250000 0.046693321 -38.799248
23204200000 0.065826654 -39.347584
23404150000 0.052251637 -39.728191
23604100000 0.057337239 -39.964825
23804050000 0.05748947 -40.453281
24004000000 0.067110956 -40.692909
24203950000 0.073428914 -41.092964
24403900000 0.064405136 -41.442883
24603850000 0.07351353 -41.744461
24803800000 0.066410661 -42.244312
25003750000 0.085169248 -42.437305
25203700000 0.10353657 -42.942066
25403650000 0.088695101 -42.952271
25603600000 0.10070881 -43.612507
25803550000 0.079657152 -43.784687
26003500000 0.10494721 -44.301147
26203450000 0.10154282 -44.507545
26403400000 0.11852519 -44.858353
26603350000 0.095222667 -45.369473
26803300000 0.11690006 -45.693531
27003250000 0.11923756 -46.11483
27203200000 0.11276244 -46.125317
27403150000 0.11342539 -46.766838
27603100000 0.11539146 -47.146839
27803050000 0.13473879 -47.442142
28003000000 0.12494918 -47.80455
28202950000 0.13791998 -48.053867
28402900000 0.16996886 -48.571808
28602850000 0.11555406 -48.775043
28802800000 0.17828536 -49.182053
29002750000 0.1160076 -49.422108
29202700000 0.18569016 -49.89106
29402650000 0.12031402 -50.407295
29602600000 0.21353926 -50.411934
29802550000 0.13346803 -50.917946
30002500000 0.16664088 -51.195133
30202450000 0.14930688 -51.8624
30402400000 0.15698263 -52.218708
30602350000 0.19412345 -52.107918
30802300000 0.1160326 -52.835297
31002250000 0.15895505 -53.222824
31202200000 0.16481593 -53.81794
31402150000 0.15970802 -53.614571
31602100000 0.17048086 -54.423405
31802050000 0.12324677 -54.487835
32002000000 0.19189267 -55.221497
32201950000 0.16495758 -55.12587
32401900000 0.15750788 -55.495865
32601850000 0.16421571 -56.124767
32801800000 0.19052896 -56.178028
33001750000 0.26553866 -56.93187
33201700000 0.15411593 -56.730175
33401650000 0.20722975 -57.175301
33601600000 0.11735059 -57.951897
33801550000 0.32531935 -57.980335
34001500000 0.19406047 -58.378838
34201450000 0.2025423 -58.688831
34401400000 0.16230418 -59.427345
34601350000 0.19419022 -59.648911
34801300000 0.24338455 -60.176311
35001250000 0.19247842 -60.249542
35201200000 0.21246947 -60.881172
35401150000 0.1871286 -61.63892
35601100000 0.25018573 -61.408115
35801050000 0.26537788 -61.983086
36001000000 0.20627421 -61.824894
36200950000 0.24078281 -62.989399
36400900000 0.20053698 -63.069298
36600850000 0.30948949 -63.23032
36800800000 0.17189622 -63.416424
37000750000 0.22429246 -63.6675
37200700000 0.23303428 -64.81591
37400650000 0.21885845 -64.446854
37600600000 0.26556212 -65.569817
37800550000 0.21135704 -65.208557
38000500000 0.27107361 -66.245132
38200450000 0.18530984 -66.601318
38400400000 0.27647513 -66.879906
38600350000 0.18246792 -68.020821
38800300000 0.2304381 -67.758698
39000250000 0.23713236 -68.794907
39200200000 0.2352912 -68.694466
39400150000 0.25839978 -69.54583
39600100000 0.20466389 -69.784798
39800050000 0.24597098 -70.305275
40000000000 0.23145381 -70.586624
