!Agilent Technologies,N5227A,US51270434,A.10.00.00
!Agilent N5227A: A.10.00.00
!Date: Wednesday, April 01, 2026 16:42:12
!Correction: S11(Full 1 Port(1)) 
!S1P File: Measurement: S11:
# Hz S  dB   R 50
10000000 -0.018859835 0.57494015
209950000 0.0083370237 -0.32314876
409900000 0.011129295 -0.7345624
609850000 0.0065542152 -1.1323028
809800000 0.0049511585 -1.444703
1009750000 0.0076679406 -1.7512933
1209700000 0.0060181636 -2.1062222
1409650000 0.001159585 -2.4508746
1609600000 0.0092408052 -2.8055499
1809550000 0.0010434533 -3.1719108
2009500000 -0.0021048118 -3.5317302
2209450000 -0.0033045984 -3.8857915
2409400000 -0.011312627 -4.1622157
2609350000 -0.011170938 -4.4773927
2809300000 -0.017856663 -4.7803788
3009250000 -0.0077885347 -5.1699443
3209200000 -0.013637006 -5.4360828
3409150000 -3.3239281e-005 -5.8063726
3609100000 0.0010331159 -6.1568956
3809050000 -0.0094911922 -6.5517321
4009000000 -0.0083991606 -6.8950262
4208950000 -0.013396504 -7.2029052
4408900000 -0.013652198 -7.5659809
4608850000 -0.016761694 -7.896399
4808800000 -0.012383167 -8.2042265
5008750000 -0.014220378 -8.5209494
5208700000 -0.0060296371 -8.8880138
5408650000 -0.0075405254 -9.2065411
5608600000 -0.0051214253 -9.6030035
5808550000 -0.00063596899 -9.9325628
6008500000 -0.010381385 -10.273051
6208450000 -0.00040855419 -10.575428
6408400000 -0.0053850655 -10.980266
6608350000 0.005466091 -11.280223
6808300000 -0.010131676 -11.659661
7008250000 -0.0016434165 -11.987309
7208200000 -0.0023622084 -12.340428
7408150000 -0.0006199627 -12.713766
7608100000 -0.0066488455 -13.021244
7808050000 -0.002760936 -13.411098
8008000000 -0.0019691226 -13.7293
8207950000 -0.010653138 -14.105394
8407900000 -1.5319609e-005 -14.396734
8607850000 -0.0064647356 -14.788767
8807800000 -0.0085030748 -15.111433
9007750000 -0.013954218 -15.458168
9207700000 -0.0024906753 -15.793597
9407650000 -0.013436987 -16.092482
9607600000 -0.0042261006 -16.463989
9807550000 -0.019813094 -16.743122
10007500000 -0.0045774044 -17.166039
10207450000 -0.012245745 -17.384693
10407400000 -0.011047347 -17.843243
10607350000 -0.019147795 -18.059479
10807300000 -0.018109862 -18.486448
11007250000 -0.013616388 -18.798334
11207200000 -0.016446976 -19.085159
11407150000 -0.01839265 -19.461895
11607100000 -0.03245455 -19.790277
11807050000 -0.017947696 -20.155157
12007000000 -0.034628596 -20.44009
12206950000 -0.017871551 -20.789017
12406900000 -0.036260784 -21.161383
12606850000 -0.016503692 -21.495939
12806800000 -0.039662529 -21.787359
13006750000 -0.031014131 -22.175371
13206700000 -0.034384407 -22.500135
13406650000 -0.033710554 -22.879904
13606600000 -0.015353988 -23.135977
13806550000 -0.03739867 -23.540854
14006500000 -0.017770205 -23.774563
14206450000 -0.031036668 -24.256643
14406400000 -0.010421175 -24.489477
14606350000 -0.02316192 -24.88114
14806300000 -0.021631984 -25.258886
15006250000 -0.028287997 -25.579767
15206200000 -0.034121055 -25.895863
15406150000 -0.024459314 -26.309029
15606100000 -0.032091565 -26.696835
15806050000 -0.019307625 -26.973261
16006000000 -0.035339199 -27.386934
16205950000 -0.022408571 -27.66379
16405900000 -0.028454689 -28.058525
16605850000 -0.019396303 -28.328386
16805800000 -0.026734125 -28.654236
17005750000 -0.029425208 -29.039261
17205700000 -0.019676095 -29.330725
17405650000 -0.023574915 -29.760111
17605600000 -0.0089818975 -29.88928
17805550000 -0.016039664 -30.38835
18005500000 -0.014370878 -30.618086
18205450000 -0.016333599 -31.024454
18405400000 -0.013861866 -31.255249
18605350000 -0.013850145 -31.628466
18805300000 -0.011643846 -31.986084
19005250000 -0.012351294 -32.144444
19205200000 -0.0046573444 -32.593513
19405150000 -0.010028373 -32.802822
19605100000 -0.0083382893 -33.301727
19805050000 -0.010077972 -33.516178
20005000000 0.0078578694 -33.956345
20204950000 -0.002192053 -34.125992
20404900000 0.0021061797 -34.577618
20604850000 0.013001847 -34.876556
20804800000 0.0073177237 -35.206413
21004750000 0.03368767 -35.424671
21204700000 0.0082119992 -35.857792
21404650000 0.03575841 -36.128418
21604600000 0.013190648 -36.667412
21804550000 0.061222613 -36.629612
22004500000 0.028119154 -37.308659
22204450000 0.06218667 -37.371666
22404400000 0.041301671 -38.042065
22604350000 0.019740237 -38.157898
22804300000 0.039958742 -38.531075
23004250000 0.039904714 -38.931477
23204200000 0.053730987 -39.388084
23404150000 0.044103436 -39.791828
23604100000 0.052211795 -40.070908
23804050000 0.054837342 -40.491634
24004000000 0.061170995 -40.771393
24203950000 0.064914331 -41.11565
24403900000 0.060851738 -41.481586
24603850000 0.070180945 -41.811161
24803800000 0.061586041 -42.254616
25003750000 0.083109207 -42.500038
25203700000 0.091567382 -42.989948
25403650000 0.075498864 -43.10294
25603600000 0.087143622 -43.670162
25803550000 0.083417162 -43.877857
26003500000 0.096515656 -44.339134
26203450000 0.1013253 -44.594051
26403400000 0.11089043 -44.931908
26603350000 0.10033017 -45.419544
26803300000 0.11458151 -45.757545
27003250000 0.11490092 -46.176384
27203200000 0.10986148 -46.249146
27403150000 0.11282503 -46.840847
27603100000 0.10882097 -47.198391
27803050000 0.13130726 -47.516453
28003000000 0.11611608 -47.871845
28202950000 0.1317168 -48.146255
28402900000 0.15284948 -48.6311
28602850000 0.12560891 -48.818951
28802800000 0.16770145 -49.332893
29002750000 0.11748813 -49.594025
29202700000 0.17113928 -50.021706
29402650000 0.1236325 -50.517441
29602600000 0.19505318 -50.602139
29802550000 0.12567487 -51.023735
30002500000 0.14897449 -51.359398
30202450000 0.14096338 -51.905289
30402400000 0.14943597 -52.300755
30602350000 0.19199561 -52.333771
30802300000 0.12212215 -52.872704
31002250000 0.15536594 -53.293957
31202200000 0.15517604 -53.828114
31402150000 0.16073988 -53.737038
31602100000 0.16379286 -54.500343
31802050000 0.13551264 -54.624203
32002000000 0.18395802 -55.270622
32201950000 0.1674315 -55.341198
32401900000 0.16099945 -55.647663
32601850000 0.15982004 -56.221909
32801800000 0.18883422 -56.332066
33001750000 0.23298998 -57.053417
33201700000 0.15787518 -57.006413
33401650000 0.21007723 -57.390549
33601600000 0.13327657 -58.042027
33801550000 0.27572295 -58.27113
34001500000 0.1944741 -58.526787
34201450000 0.19712234 -58.953945
34401400000 0.16264462 -59.497849
34601350000 0.19216235 -59.800064
34801300000 0.22580785 -60.306671
35001250000 0.18793294 -60.518768
35201200000 0.21711491 -61.026676
35401150000 0.18788974 -61.618935
35601100000 0.23383215 -61.632103
35801050000 0.24629511 -62.161633
36001000000 0.20350124 -62.107197
36200950000 0.23238343 -63.048294
36400900000 0.18826312 -63.312733
36600850000 0.28425464 -63.380077
36800800000 0.18192223 -63.677799
37000750000 0.21850236 -63.991901
37200700000 0.23129076 -64.891365
37400650000 0.21265809 -64.702858
37600600000 0.25604609 -65.683403
37800550000 0.20901574 -65.507545
38000500000 0.2686536 -66.433731
38200450000 0.19821218 -66.624016
38400400000 0.25780293 -67.102371
38600350000 0.18647973 -68.114517
38800300000 0.23312217 -67.877174
39000250000 0.22742079 -68.866745
39200200000 0.23327324 -68.845169
39400150000 0.2472637 -69.662384
39600100000 0.19953394 -69.843437
39800050000 0.23606123 -70.365051
40000000000 0.22321923 -70.887367
