!Agilent Technologies,N5227A,US51270434,A.10.00.00
!Agilent N5227A: A.10.00.00
!Date: Wednesday, April 01, 2026 16:43:47
!Correction: S11(Full 1 Port(1)) 
!S1P File: Measurement: S11:
# Hz S  dB   R 50
10000000 -0.031053413 0.56365043
209950000 0.0093975058 -0.28347299
409900000 0.013126599 -0.70938385
609850000 0.0080768084 -1.1182066
809800000 0.0097161364 -1.4358311
1009750000 0.0077336305 -1.7218997
1209700000 0.005785828 -2.0820544
1409650000 0.011254355 -2.4169524
1609600000 0.0096264565 -2.7900922
1809550000 0.0022375493 -3.1833272
2009500000 0.0025432857 -3.5297456
2209450000 -0.001325213 -3.8912549
2409400000 -0.009115003 -4.1232042
2609350000 -0.010606976 -4.4508429
2809300000 -0.014265368 -4.751595
3009250000 -0.0053135464 -5.1160617
3209200000 -0.0087393289 -5.4134622
3409150000 0.0026527529 -5.7689381
3609100000 0.0051472387 -6.1463723
3809050000 -0.0085586375 -6.5253644
4009000000 -0.0036329189 -6.8761411
4208950000 -0.012513356 -7.1891952
4408900000 -0.011388971 -7.5578794
4608850000 -0.015128475 -7.8740311
4808800000 -0.0076052216 -8.189312
5008750000 -0.0028105287 -8.4784002
5208700000 0.0023882445 -8.862299
5408650000 -0.0016023903 -9.1856184
5608600000 0.0018362544 -9.5907211
5808550000 0.0058592097 -9.9053688
6008500000 -0.0062763118 -10.265835
6208450000 0.0065258667 -10.54469
6408400000 -0.0042584771 -10.979692
6608350000 0.012516799 -11.264339
6808300000 -0.0071140933 -11.638734
7008250000 0.0064419094 -11.945369
7208200000 0.0028068903 -12.308197
7408150000 0.0039148284 -12.696368
7608100000 -0.0015874245 -13.017598
7808050000 0.00042945342 -13.414197
8008000000 0.001958898 -13.684334
8207950000 -0.0050777583 -14.09458
8407900000 0.0062633478 -14.368556
8607850000 -0.0065663173 -14.778995
8807800000 -0.00023903701 -15.087751
9007750000 -0.0108536 -15.453949
9207700000 0.00085839338 -15.766512
9407650000 -0.0052319267 -16.06078
9607600000 0.0018668583 -16.451527
9807550000 -0.014900505 -16.700779
10007500000 0.00017270731 -17.122095
10207450000 -0.0086747538 -17.287481
10407400000 -0.0081733344 -17.804094
10607350000 -0.015402823 -18.023075
10807300000 -0.014469667 -18.450174
11007250000 -0.010322251 -18.724472
11207200000 -0.011304358 -19.015104
11407150000 -0.013308224 -19.398476
11607100000 -0.028868271 -19.711533
11807050000 -0.011633608 -20.099522
12007000000 -0.034000851 -20.379633
12206950000 -0.012319506 -20.732357
12406900000 -0.03573047 -21.114582
12606850000 -0.017963553 -21.445486
12806800000 -0.039556704 -21.737789
13006750000 -0.023822948 -22.137745
13206700000 -0.031086799 -22.45075
13406650000 -0.028324438 -22.836164
13606600000 -0.0066026351 -23.074486
13806550000 -0.035617892 -23.491137
14006500000 -0.012213435 -23.74378
14206450000 -0.02850157 -24.195967
14406400000 -0.0055685565 -24.460468
14606350000 -0.02068013 -24.828842
14806300000 -0.01655658 -25.21578
15006250000 -0.023015583 -25.557495
15206200000 -0.031763434 -25.860443
15406150000 -0.019713975 -26.285383
15606100000 -0.025535274 -26.721916
15806050000 -0.013387273 -26.949764
16006000000 -0.034282535 -27.402351
16205950000 -0.018096335 -27.652361
16405900000 -0.026434148 -28.057871
16605850000 -0.015568478 -28.335091
16805800000 -0.023363555 -28.686279
17005750000 -0.02554553 -29.051985
17205700000 -0.015353004 -29.317116
17405650000 -0.012809639 -29.761679
17605600000 -0.0084486017 -29.829855
17805550000 -0.015156171 -30.390678
18005500000 -0.01145636 -30.58028
18205450000 -0.014060306 -30.998144
18405400000 -0.0058460794 -31.193153
18605350000 -0.012362165 -31.604912
18805300000 -0.0091935908 -31.950914
19005250000 -0.003929012 -32.111076
19205200000 0.0059391805 -32.575985
19405150000 -0.006126503 -32.758667
19605100000 -0.0018379109 -33.267715
19805050000 -0.006717619 -33.474415
20005000000 0.010550388 -33.900436
20204950000 0.002318884 -34.032574
20404900000 0.0071933344 -34.54216
20604850000 0.016067613 -34.836811
20804800000 0.011270488 -35.177906
21004750000 0.039061319 -35.33952
21204700000 0.006190028 -35.777397
21404650000 0.042917468 -36.097782
21604600000 0.019968893 -36.637058
21804550000 0.072332427 -36.60141
22004500000 0.028636681 -37.268147
22204450000 0.080159687 -37.282742
22404400000 0.042472847 -37.981743
22604350000 0.022378301 -38.05423
22804300000 0.039779026 -38.428493
23004250000 0.046051387 -38.833092
23204200000 0.063213035 -39.343658
23404150000 0.049309779 -39.744236
23604100000 0.062058352 -39.984119
23804050000 0.058267754 -40.462051
24004000000 0.068652488 -40.696293
24203950000 0.071435094 -41.074417
24403900000 0.064554714 -41.420589
24603850000 0.075431421 -41.746925
24803800000 0.06579978 -42.222591
25003750000 0.093109503 -42.438072
25203700000 0.1019396 -42.954758
25403650000 0.090218246 -43.010757
25603600000 0.1009682 -43.628403
25803550000 0.083074309 -43.782871
26003500000 0.10264199 -44.310841
26203450000 0.10498948 -44.525009
26403400000 0.12892322 -44.833679
26603350000 0.099722125 -45.395317
26803300000 0.11890578 -45.680687
27003250000 0.12123302 -46.098148
27203200000 0.11355405 -46.132126
27403150000 0.11808756 -46.764133
27603100000 0.12087404 -47.178188
27803050000 0.14217803 -47.468151
28003000000 0.12208713 -47.822086
28202950000 0.13990997 -48.087345
28402900000 0.16527495 -48.581135
28602850000 0.1285435 -48.743187
28802800000 0.17728288 -49.155735
29002750000 0.12349603 -49.47691
29202700000 0.18622611 -49.926865
29402650000 0.1184493 -50.401169
29602600000 0.21142294 -50.416508
29802550000 0.13298735 -50.942757
30002500000 0.15997413 -51.278641
30202450000 0.14749275 -51.858368
30402400000 0.15599169 -52.222214
30602350000 0.1926647 -52.116043
30802300000 0.11627018 -52.810383
31002250000 0.15581003 -53.225594
31202200000 0.16481061 -53.848236
31402150000 0.1644665 -53.609646
31602100000 0.17026743 -54.405102
31802050000 0.126829 -54.529663
32002000000 0.19022688 -55.229912
32201950000 0.17509678 -55.181023
32401900000 0.16002642 -55.506771
32601850000 0.17585944 -56.067562
32801800000 0.19075461 -56.286457
33001750000 0.25940779 -56.894733
33201700000 0.16079071 -56.771168
33401650000 0.19874257 -57.266937
33601600000 0.11811127 -57.978989
33801550000 0.29007277 -58.144711
34001500000 0.19135103 -58.403023
34201450000 0.20289941 -58.758118
34401400000 0.15913838 -59.436203
34601350000 0.19890957 -59.634239
34801300000 0.24152765 -60.22583
35001250000 0.18241957 -60.296753
35201200000 0.20965514 -60.881474
35401150000 0.18529883 -61.610935
35601100000 0.24954553 -61.416317
35801050000 0.26570868 -62.051018
36001000000 0.2251056 -61.891953
36200950000 0.23996252 -63.027782
36400900000 0.20413168 -63.080849
36600850000 0.29710951 -63.114964
36800800000 0.1815854 -63.478569
37000750000 0.21708 -63.837593
37200700000 0.24063061 -64.775566
37400650000 0.22410759 -64.40834
37600600000 0.26717257 -65.556313
37800550000 0.20787355 -65.250671
38000500000 0.27288303 -66.08696
38200450000 0.20223743 -66.616325
38400400000 0.28205702 -66.806526
38600350000 0.19494064 -68.083916
38800300000 0.21800286 -67.692635
39000250000 0.23322083 -68.848991
39200200000 0.24230869 -68.670273
39400150000 0.25294718 -69.517296
39600100000 0.19378126 -69.84642
39800050000 0.24376488 -70.323654
40000000000 0.24498378 -70.612236
