!Agilent Technologies,N5227A,US51270434,A.10.00.00
!Agilent N5227A: A.10.00.00
!Date: Wednesday, April 01, 2026 16:44:15
!Correction: S11(Full 1 Port(1)) 
!S1P File: Measurement: S11:
# Hz S  dB   R 50
10000000 -0.036903333 0.74537086
209950000 0.010339934 -0.26961696
409900000 0.014134045 -0.68267435
609850000 0.00973251 -1.0867795
809800000 0.0078359647 -1.4298036
1009750000 0.0078689158 -1.7021912
1209700000 0.010575265 -2.0675106
1409650000 0.0067852107 -2.4060318
1609600000 0.0093723098 -2.796263
1809550000 0.0021312127 -3.16822
2009500000 0.0047764415 -3.5127447
2209450000 -0.002237217 -3.8790467
2409400000 -0.0094220405 -4.1149278
2609350000 -0.0045321169 -4.4518247
2809300000 -0.015343127 -4.7444839
3009250000 -3.2596643e-005 -5.1169291
3209200000 -0.0090251528 -5.3956385
3409150000 0.002818306 -5.7829571
3609100000 0.0023960404 -6.146091
3809050000 -0.0056267842 -6.5212951
4009000000 -0.004840977 -6.8678451
4208950000 -0.01101401 -7.1901078
4408900000 -0.0086939894 -7.5539355
4608850000 -0.014481623 -7.8655248
4808800000 -0.0058546979 -8.1732502
5008750000 -0.0033139093 -8.4817286
5208700000 0.00073745259 -8.8532705
5408650000 -0.0038370525 -9.1778307
5608600000 0.0033458965 -9.5769634
5808550000 0.011600266 -9.8953276
6008500000 -0.0035412628 -10.268871
6208450000 0.011195453 -10.551868
6408400000 -0.0041412907 -10.985487
6608350000 0.017041808 -11.272442
6808300000 -0.0046053138 -11.660427
7008250000 0.0062120832 -11.953386
7208200000 0.0040409416 -12.313701
7408150000 0.0053895651 -12.706928
7608100000 -0.00087128195 -12.998183
7808050000 0.0010294786 -13.407976
8008000000 0.0073536234 -13.687216
8207950000 -0.0053237174 -14.108809
8407900000 0.004585071 -14.347989
8607850000 -0.010156372 -14.771426
8807800000 -0.0020218145 -15.087536
9007750000 -0.0088486699 -15.429688
9207700000 0.0038896312 -15.746277
9407650000 -0.006523292 -16.058256
9607600000 0.0058046058 -16.451921
9807550000 -0.015689181 -16.694448
10007500000 0.0017075704 -17.113682
10207450000 -0.0064187096 -17.300268
10407400000 -0.0046714484 -17.801035
10607350000 -0.01404857 -18.011255
10807300000 -0.010959029 -18.422235
11007250000 -0.010732365 -18.715242
11207200000 -0.013197816 -19.006599
11407150000 -0.015090559 -19.392872
11607100000 -0.026066018 -19.700039
11807050000 -0.010413274 -20.080328
12007000000 -0.032819916 -20.374723
12206950000 -0.0063959081 -20.72333
12406900000 -0.032688465 -21.093586
12606850000 -0.015402032 -21.419863
12806800000 -0.036301151 -21.728321
13006750000 -0.026371257 -22.136242
13206700000 -0.028669162 -22.456429
13406650000 -0.030400155 -22.830666
13606600000 -0.011062938 -23.048027
13806550000 -0.035019822 -23.491438
14006500000 -0.012659702 -23.744724
14206450000 -0.027817797 -24.200075
14406400000 -0.0043336451 -24.421854
14606350000 -0.017595727 -24.85845
14806300000 -0.013894616 -25.183369
15006250000 -0.023194797 -25.54077
15206200000 -0.028748428 -25.845186
15406150000 -0.018680923 -26.284309
15606100000 -0.021734364 -26.683142
15806050000 -0.018144283 -26.97724
16006000000 -0.029431608 -27.392603
16205950000 -0.02113644 -27.64455
16405900000 -0.022014458 -28.066738
16605850000 -0.013129935 -28.325649
16805800000 -0.021094887 -28.674032
17005750000 -0.025337584 -29.065983
17205700000 -0.013779983 -29.320978
17405650000 -0.013367761 -29.768482
17605600000 -0.0042846897 -29.843241
17805550000 -0.01430827 -30.398827
18005500000 -0.0078745736 -30.601074
18205450000 -0.011854494 -31.01758
18405400000 -0.0074867206 -31.22966
18605350000 -0.011134134 -31.604361
18805300000 -0.007240749 -31.9632
19005250000 -0.0021171886 -32.11528
19205200000 0.0060311025 -32.579861
19405150000 -0.0063210432 -32.753304
19605100000 -0.00056336133 -33.249859
19805050000 -0.0064186896 -33.473598
20005000000 0.014833585 -33.913155
20204950000 -0.0030729764 -34.071392
20404900000 0.0073417821 -34.553886
20604850000 0.017779689 -34.826908
20804800000 0.012834705 -35.174992
21004750000 0.04860846 -35.369251
21204700000 0.0076424726 -35.759117
21404650000 0.038585972 -36.095989
21604600000 0.021829242 -36.651611
21804550000 0.067297153 -36.52837
22004500000 0.033842884 -37.262341
22204450000 0.080921829 -37.235737
22404400000 0.046379149 -38.008293
22604350000 0.025254929 -38.043373
22804300000 0.038456198 -38.426579
23004250000 0.046167865 -38.81184
23204200000 0.061428275 -39.330162
23404150000 0.053041689 -39.70372
23604100000 0.065103434 -39.983978
23804050000 0.055996791 -40.456711
24004000000 0.066501059 -40.688957
24203950000 0.074998133 -41.088985
24403900000 0.063279562 -41.42025
24603850000 0.076516561 -41.742863
24803800000 0.067292131 -42.218487
25003750000 0.086948164 -42.440311
25203700000 0.10701016 -42.976627
25403650000 0.084135659 -42.978485
25603600000 0.10156173 -43.637325
25803550000 0.080334783 -43.762585
26003500000 0.107658 -44.304192
26203450000 0.10718454 -44.515171
26403400000 0.12456614 -44.868259
26603350000 0.10261919 -45.393314
26803300000 0.12101356 -45.703426
27003250000 0.12650098 -46.109154
27203200000 0.11722315 -46.150146
27403150000 0.11479513 -46.778267
27603100000 0.11476547 -47.15379
27803050000 0.1378824 -47.466572
28003000000 0.12111093 -47.839931
28202950000 0.13867478 -48.100925
28402900000 0.1690578 -48.551765
28602850000 0.12150942 -48.740692
28802800000 0.18387544 -49.200752
29002750000 0.12423036 -49.464344
29202700000 0.18382318 -49.904972
29402650000 0.13123891 -50.381672
29602600000 0.21381551 -50.373222
29802550000 0.13451973 -50.892479
30002500000 0.15515807 -51.176014
30202450000 0.14365825 -51.852394
30402400000 0.15024333 -52.215267
30602350000 0.19041775 -52.185909
30802300000 0.11779556 -52.834152
31002250000 0.1552171 -53.264759
31202200000 0.16739844 -53.797821
31402150000 0.16753994 -53.57251
31602100000 0.17806986 -54.434032
31802050000 0.12348492 -54.561199
32002000000 0.19483772 -55.253002
32201950000 0.17437916 -55.170486
32401900000 0.15920411 -55.462566
32601850000 0.18215674 -56.071301
32801800000 0.19814023 -56.278404
33001750000 0.28986368 -56.799683
33201700000 0.15850788 -56.730991
33401650000 0.22198905 -57.176914
33601600000 0.11529071 -57.949383
33801550000 0.31030306 -57.992611
34001500000 0.18503314 -58.380085
34201450000 0.19891906 -58.716766
34401400000 0.16410977 -59.403931
34601350000 0.19887698 -59.6287
34801300000 0.24814571 -60.196377
35001250000 0.18620582 -60.302906
35201200000 0.21224426 -60.816551
35401150000 0.18689708 -61.657703
35601100000 0.2481347 -61.391823
35801050000 0.26674381 -62.015774
36001000000 0.19678585 -61.772873
36200950000 0.24885035 -62.982815
36400900000 0.20609619 -63.123905
36600850000 0.31130368 -63.153187
36800800000 0.18189001 -63.360844
37000750000 0.23361579 -63.851151
37200700000 0.23676381 -64.772736
37400650000 0.23762254 -64.408455
37600600000 0.26651192 -65.617355
37800550000 0.21382585 -65.325661
38000500000 0.29106408 -66.124115
38200450000 0.1895301 -66.561676
38400400000 0.27671239 -66.872398
38600350000 0.18532771 -68.082886
38800300000 0.21159446 -67.72393
39000250000 0.22755472 -68.769928
39200200000 0.25169739 -68.709793
39400150000 0.25968826 -69.51458
39600100000 0.19687141 -69.849487
39800050000 0.2453292 -70.243225
40000000000 0.25280145 -70.556717
