!Agilent Technologies,N5227A,US51270434,A.10.00.00
!Agilent N5227A: A.10.00.00
!Date: Monday, March 30, 2026 11:27:45
!Correction: S11(Full 1 Port(1)) 
!S1P File: Measurement: S11:
# Hz S  dB   R 50
10000000 -15.539295 -179.04326
209950000 -15.469976 -179.42804
409900000 -15.428585 -178.69991
609850000 -15.430092 -178.2552
809800000 -15.420345 -177.51692
1009750000 -15.402754 -177.13231
1209700000 -15.392506 -176.34668
1409650000 -15.359499 -175.99046
1609600000 -15.340988 -175.37827
1809550000 -15.290567 -174.73279
2009500000 -15.252077 -174.21005
2209450000 -15.23738 -173.68317
2409400000 -15.173024 -173.19965
2609350000 -15.147102 -172.49237
2809300000 -15.063987 -172.15776
3009250000 -15.059678 -171.67488
3209200000 -14.95195 -171.27003
3409150000 -14.914118 -170.70114
3609100000 -14.859105 -170.21194
3809050000 -14.785477 -169.86879
4009000000 -14.723451 -169.31235
4208950000 -14.642904 -169.08214
4408900000 -14.588585 -168.47882
4608850000 -14.489121 -168.29005
4808800000 -14.438938 -167.6622
5008750000 -14.346267 -167.44943
5208700000 -14.281939 -167.15154
5408650000 -14.199497 -166.69667
5608600000 -14.106486 -166.55911
5808550000 -14.048878 -166.10652
6008500000 -13.91914 -166.0097
6208450000 -13.86245 -165.64781
6408400000 -13.749836 -165.41098
6608350000 -13.7139 -165.24811
6808300000 -13.564105 -165.12413
7008250000 -13.49098 -164.87341
7208200000 -13.401643 -164.56804
7408150000 -13.294899 -164.60251
7608100000 -13.213957 -164.41553
7808050000 -13.08071 -164.33224
8008000000 -13.027804 -164.14723
8207950000 -12.894579 -164.0531
8407900000 -12.825514 -164.02367
8607850000 -12.6978 -163.87552
8807800000 -12.609131 -163.97458
9007750000 -12.500487 -163.65016
9207700000 -12.413167 -163.85881
9407650000 -12.298855 -163.89325
9607600000 -12.197523 -163.80785
9807550000 -12.09422 -164.0506
10007500000 -12.005043 -163.77631
10207450000 -11.8976 -164.28723
10407400000 -11.79841 -164.02486
10607350000 -11.679164 -164.37704
10807300000 -11.600778 -164.1151
11007250000 -11.485544 -164.43439
11207200000 -11.396329 -164.64665
11407150000 -11.272778 -164.76076
11607100000 -11.137803 -164.95711
11807050000 -11.090216 -164.82851
12007000000 -10.913666 -165.29341
12206950000 -10.892953 -165.19078
12406900000 -10.700225 -165.5891
12606850000 -10.716803 -165.56142
12806800000 -10.52177 -166.255
13006750000 -10.458513 -166.28777
13206700000 -10.332072 -166.69156
13406650000 -10.240431 -166.90546
13606600000 -10.175101 -167.243
13806550000 -10.035923 -167.53354
14006500000 -9.9847336 -168.00104
14206450000 -9.8183708 -168.11333
14406400000 -9.78722 -168.54237
14606350000 -9.6574774 -168.79462
14806300000 -9.5848083 -169.41115
15006250000 -9.4549475 -169.55991
15206200000 -9.3509617 -170.05829
15406150000 -9.2716656 -170.34047
15606100000 -9.1749449 -170.84338
15806050000 -9.0931549 -171.28514
16006000000 -8.9782333 -171.59508
16205950000 -8.9119091 -172.16478
16405900000 -8.7748594 -172.47041
16605850000 -8.7181768 -172.91864
16805800000 -8.6182194 -173.39394
17005750000 -8.5100679 -173.98018
17205700000 -8.4245329 -174.30501
17405650000 -8.3337603 -174.6266
17605600000 -8.2684517 -175.36983
17805550000 -8.1586094 -175.69492
18005500000 -8.0715933 -176.25552
18205450000 -7.9934435 -176.58597
18405400000 -7.8979082 -177.2921
18605350000 -7.8019495 -177.65359
18805300000 -7.6992087 -178.16838
19005250000 -7.6438985 -178.73795
19205200000 -7.5376263 -179.19841
19405150000 -7.4450502 -179.89189
19605100000 -7.373095 179.83235
19805050000 -7.2578855 178.9332
20005000000 -7.2035637 178.87625
20204950000 -7.1056056 177.87192
20404900000 -7.028532 177.50581
20604850000 -6.9429846 176.80319
20804800000 -6.8588109 176.36076
21004750000 -6.8270993 175.64291
21204700000 -6.6885252 174.85432
21404650000 -6.6397166 174.34224
21604600000 -6.5041723 173.9967
21804550000 -6.5333233 172.93027
22004500000 -6.3672361 172.57382
22204450000 -6.3550253 171.61133
22404400000 -6.219552 171.48851
22604350000 -6.1949792 170.31183
22804300000 -6.0944114 170.14778
23004250000 -5.9973369 169.13759
23204200000 -5.9507637 168.55287
23404150000 -5.8617916 168.15044
23604100000 -5.8383341 167.20865
23804050000 -5.7408214 166.69572
24004000000 -5.6753278 165.82028
24203950000 -5.614975 165.34167
24403900000 -5.5275002 164.54843
24603850000 -5.4893351 163.80072
24803800000 -5.3681426 163.17085
25003750000 -5.3426208 162.42769
25203700000 -5.2874517 161.78665
25403650000 -5.2050819 160.73764
25603600000 -5.1552563 160.31184
25803550000 -5.0426669 159.24721
26003500000 -5.0370526 158.97997
26203450000 -4.9361615 157.8468
26403400000 -4.9128833 157.22803
26603350000 -4.8121219 156.33176
26803300000 -4.7777839 155.63733
27003250000 -4.7204156 155.24355
27203200000 -4.6805096 153.9418
27403150000 -4.6026621 153.50661
27603100000 -4.5437336 152.82901
27803050000 -4.5350375 152.03783
28003000000 -4.4503794 151.48537
28202950000 -4.4134145 150.31952
28402900000 -4.3694992 150.0107
28602850000 -4.2873774 148.66211
28802800000 -4.2916255 148.10188
29002750000 -4.1470866 147.33022
29202700000 -4.2267547 146.40385
29402650000 -4.0634627 145.89047
29602600000 -4.147471 144.59444
29802550000 -4.0342093 144.16312
30002500000 -4.0018373 143.10106
30202450000 -3.9053156 142.87015
30402400000 -3.8949816 142.23494
30602350000 -3.9108284 140.74464
30802300000 -3.743485 140.72382
31002250000 -3.7352746 139.84299
31202200000 -3.7486784 139.99792
31402150000 -3.7547905 137.84879
31602100000 -3.728879 137.7868
31802050000 -3.550323 136.29808
32002000000 -3.6802096 136.89095
32201950000 -3.5863485 134.64221
32401900000 -3.510499 134.31551
32601850000 -3.4966176 133.67259
32801800000 -3.4336381 132.668
33001750000 -3.5253441 131.98354
33201700000 -3.3217597 130.81378
33401650000 -3.4115729 130.20944
33601600000 -3.2489228 129.69261
33801550000 -3.3431373 128.5847
34001500000 -3.176487 128.53865
34201450000 -3.18736 126.70701
34401400000 -3.0869362 127.3027
34601350000 -3.1262684 125.92464
34801300000 -3.1690969 125.29223
35001250000 -3.0074618 123.89962
35201200000 -3.0072463 123.10725
35401150000 -2.807133 124.26865
35601100000 -3.1517909 122.07443
35801050000 -2.8876345 121.6279
36001000000 -2.9126756 119.45247
36200950000 -2.8620217 119.56557
36400900000 -2.847945 118.2267
36600850000 -2.93419 117.312
36800800000 -2.7736242 116.42847
37000750000 -2.8385727 115.32414
37200700000 -2.7599795 115.02832
37400650000 -2.73669 114.0033
37600600000 -2.8327804 113.3257
37800550000 -2.6059861 112.26499
38000500000 -2.7356386 111.66066
38200450000 -2.5649805 111.06119
38400400000 -2.6315019 110.25521
38600350000 -2.6169393 110.11334
38800300000 -2.5345528 107.82344
39000250000 -2.6212468 108.72273
39200200000 -2.5441203 105.76728
39400150000 -2.580569 106.28456
39600100000 -2.5696056 104.8714
39800050000 -2.557874 104.24178
40000000000 -2.5826464 103.58618
