!Agilent Technologies,N5227A,US51270434,A.10.00.00
!Agilent N5227A: A.10.00.00
!Date: Monday, March 30, 2026 11:35:38
!Correction: S11(Full 1 Port(1)) 
!S1P File: Measurement: S11:
# Hz S  dB   R 50
10000000 -4.3842621 0.41059342
209950000 -4.3351035 -1.8116938
409900000 -4.3430324 -3.6865528
609850000 -4.3459768 -5.5118489
809800000 -4.3382802 -7.3440447
1009750000 -4.347456 -9.1087179
1209700000 -4.3448286 -10.898556
1409650000 -4.3347507 -12.684372
1609600000 -4.3384609 -14.538085
1809550000 -4.3383026 -16.372952
2009500000 -4.3393579 -18.157597
2209450000 -4.3421931 -19.995113
2409400000 -4.351613 -21.671944
2609350000 -4.3275661 -23.380749
2809300000 -4.344893 -25.159655
3009250000 -4.3227773 -26.870346
3209200000 -4.3240457 -28.639914
3409150000 -4.3017306 -30.359955
3609100000 -4.2978401 -32.261501
3809050000 -4.3121185 -33.98711
4009000000 -4.2893929 -35.783566
4208950000 -4.2937913 -37.459278
4408900000 -4.2744379 -39.216
4608850000 -4.2839227 -40.990799
4808800000 -4.2548299 -42.632721
5008750000 -4.2446647 -44.372883
5208700000 -4.2365546 -46.006115
5408650000 -4.2260118 -47.822205
5608600000 -4.2185388 -49.523438
5808550000 -4.1913371 -51.146732
6008500000 -4.2083344 -52.90913
6208450000 -4.1814408 -54.527348
6408400000 -4.182672 -56.338753
6608350000 -4.159915 -57.819279
6808300000 -4.1631012 -59.674107
7008250000 -4.1476283 -61.214149
7208200000 -4.129355 -62.904293
7408150000 -4.1242266 -64.596619
7608100000 -4.1134195 -66.231606
7808050000 -4.1064301 -67.914597
8008000000 -4.0920286 -69.399818
8207950000 -4.0796285 -71.165192
8407900000 -4.0707078 -72.673996
8607850000 -4.0402508 -74.367981
8807800000 -4.0457339 -75.956985
9007750000 -4.0167542 -77.524445
9207700000 -4.0163422 -79.061012
9407650000 -3.996732 -80.649872
9607600000 -3.9865627 -82.232033
9807550000 -3.991636 -83.785194
10007500000 -3.9459705 -85.26767
10207450000 -3.9722331 -86.819534
10407400000 -3.93589 -88.345612
10607350000 -3.9495199 -89.955284
10807300000 -3.9107318 -91.307587
11007250000 -3.9073236 -92.921333
11207200000 -3.8990269 -94.311356
11407150000 -3.8852954 -95.897835
11607100000 -3.8718197 -97.534157
11807050000 -3.8369422 -98.738365
12007000000 -3.8328426 -100.47872
12206950000 -3.8201842 -101.59776
12406900000 -3.7902803 -103.48395
12606850000 -3.7837491 -104.37692
12806800000 -3.7723441 -106.3863
13006750000 -3.7507699 -107.6153
13206700000 -3.7417812 -109.2008
13406650000 -3.7170479 -110.60483
13606600000 -3.7224026 -111.93374
13806550000 -3.6987519 -113.52571
14006500000 -3.7070539 -114.7401
14206450000 -3.6600947 -116.34113
14406400000 -3.6718762 -117.56238
14606350000 -3.6320477 -119.06564
14806300000 -3.6522474 -120.49119
15006250000 -3.6146867 -121.91208
15206200000 -3.6024115 -123.36337
15406150000 -3.5817537 -124.60828
15606100000 -3.580971 -126.12148
15806050000 -3.5796459 -127.45329
16006000000 -3.5428672 -128.82071
16205950000 -3.556468 -130.11948
16405900000 -3.5101836 -131.52971
16605850000 -3.5274591 -132.76987
16805800000 -3.5084026 -134.14006
17005750000 -3.4921052 -135.57568
17205700000 -3.4731259 -136.77702
17405650000 -3.4530544 -138.00148
17605600000 -3.4827995 -139.3477
17805550000 -3.4430583 -140.69824
18005500000 -3.4487238 -141.95786
18205450000 -3.4284828 -143.10295
18405400000 -3.4279201 -144.54306
18605350000 -3.4075563 -145.7292
18805300000 -3.377018 -147.00362
19005250000 -3.395503 -148.19554
19205200000 -3.3591704 -149.4541
19405150000 -3.3599701 -150.87292
19605100000 -3.335839 -151.81084
19805050000 -3.3246493 -153.39241
20005000000 -3.3127825 -154.19971
20204950000 -3.3134098 -155.78471
20404900000 -3.3003571 -156.74811
20604850000 -3.287004 -158.07756
20804800000 -3.2751663 -159.22778
21004750000 -3.2971835 -160.4296
21204700000 -3.2563961 -161.89935
21404650000 -3.2652586 -162.9603
21604600000 -3.1921222 -163.98
21804550000 -3.2892096 -165.3501
22004500000 -3.1937587 -166.58733
22204450000 -3.2562556 -167.87231
22404400000 -3.1813536 -168.7317
22604350000 -3.2394023 -170.35033
22804300000 -3.1895962 -170.99226
23004250000 -3.1623745 -172.48811
23204200000 -3.1804001 -173.54959
23404150000 -3.1381905 -174.58875
23604100000 -3.1731951 -175.83873
23804050000 -3.1403816 -176.81229
24004000000 -3.146714 -178.14578
24203950000 -3.1406262 -179.08879
24403900000 -3.1226103 179.63104
24603850000 -3.1320636 178.42899
24803800000 -3.0716848 177.46999
25003750000 -3.117013 176.29779
25203700000 -3.1022544 175.32062
25403650000 -3.101233 173.73514
25603600000 -3.0932658 173.09309
25803550000 -3.0405917 171.53252
26003500000 -3.0821662 171.05
26203450000 -3.0419374 169.42299
26403400000 -3.0720203 168.51291
26603350000 -3.0184777 167.32314
26803300000 -3.0533106 166.32207
27003250000 -3.0255687 165.61534
27203200000 -3.0386207 163.98642
27403150000 -3.0118258 163.26613
27603100000 -2.9881449 162.3678
27803050000 -3.0369883 161.22073
28003000000 -3.0070069 160.45377
28202950000 -3.009254 158.90538
28402900000 -2.996448 158.44553
28602850000 -2.9782569 156.7749
28802800000 -3.0285075 155.90143
29002750000 -2.9013736 154.75035
29202700000 -3.0570176 153.77351
29402650000 -2.9183357 152.97946
29602600000 -3.0631378 151.44574
29802550000 -2.9532301 150.80586
30002500000 -2.9711528 149.36449
30202450000 -2.9106612 149.20634
30402400000 -2.9501703 148.21223
30602350000 -2.9933436 146.40585
30802300000 -2.8693817 146.29094
31002250000 -2.872694 145.08105
31202200000 -2.9532766 145.77087
31402150000 -2.9941795 142.63724
31602100000 -3.0069344 142.78923
31802050000 -2.8106527 140.8524
32002000000 -2.9967251 141.81705
32201950000 -2.956635 138.94383
32401900000 -2.9254549 138.4361
32601850000 -2.9242849 137.69968
32801800000 -2.9191003 136.37376
33001750000 -3.0225372 135.63475
33201700000 -2.8125815 134.16914
33401650000 -2.9863439 133.56577
33601600000 -2.7807846 132.9362
33801550000 -2.9906895 131.54904
34001500000 -2.7723703 131.62173
34201450000 -2.840224 129.295
34401400000 -2.7184567 130.23427
34601350000 -2.8043711 128.7755
34801300000 -2.9488053 127.97917
35001250000 -2.6984305 126.49968
35201200000 -2.7887528 125.45197
35401150000 -2.5197132 127.07697
35601100000 -2.9849713 124.54059
35801050000 -2.7117465 124.06043
36001000000 -2.760885 121.1467
36200950000 -2.7382529 121.72875
36400900000 -2.7040184 120.00528
36600850000 -2.8625119 119.038
36800800000 -2.6811869 117.91068
37000750000 -2.7770796 116.70969
37200700000 -2.6834731 116.53842
37400650000 -2.6814132 115.10036
37600600000 -2.8301666 114.64885
37800550000 -2.5661712 113.34243
38000500000 -2.7396355 112.67268
38200450000 -2.5574098 112.31694
38400400000 -2.6468167 111.00915
38600350000 -2.6247468 111.56035
38800300000 -2.5665777 108.59563
39000250000 -2.660012 109.97606
39200200000 -2.5705469 106.22281
39400150000 -2.6560185 106.99606
39600100000 -2.620518 105.10307
39800050000 -2.6587222 104.69469
40000000000 -2.6660707 103.7004
