!Agilent Technologies,N5227A,US51270434,A.10.00.00
!Agilent N5227A: A.10.00.00
!Date: Monday, March 30, 2026 11:27:18
!Correction: S11(Full 1 Port(1)) 
!S1P File: Measurement: S11:
# Hz S  dB   R 50
10000000 -14.731684 -179.02798
209950000 -14.651039 -179.0955
409900000 -14.628437 -178.06534
609850000 -14.60888 -177.34326
809800000 -14.588575 -176.3228
1009750000 -14.550312 -175.54736
1209700000 -14.510415 -174.44873
1409650000 -14.470244 -173.64296
1609600000 -14.416813 -172.8974
1809550000 -14.34394 -172.05624
2009500000 -14.288305 -171.24721
2209450000 -14.220749 -170.43707
2409400000 -14.135138 -169.77887
2609350000 -14.068799 -168.90654
2809300000 -13.958626 -168.36351
3009250000 -13.888562 -167.63339
3209200000 -13.76782 -167.08517
3409150000 -13.690708 -166.42755
3609100000 -13.581324 -165.81665
3809050000 -13.460073 -165.35396
4009000000 -13.365995 -164.71979
4208950000 -13.236958 -164.43602
4408900000 -13.137149 -163.86688
4608850000 -12.998195 -163.58482
4808800000 -12.902289 -162.99774
5008750000 -12.772141 -162.73924
5208700000 -12.662234 -162.45596
5408650000 -12.520292 -162.08472
5608600000 -12.391753 -161.95451
5808550000 -12.287066 -161.5885
6008500000 -12.135692 -161.51071
6208450000 -12.035931 -161.2782
6408400000 -11.882937 -161.17212
6608350000 -11.802573 -161.04044
6808300000 -11.627138 -161.00684
7008250000 -11.520997 -160.91249
7208200000 -11.38451 -160.80495
7408150000 -11.250197 -160.89142
7608100000 -11.134751 -160.91608
7808050000 -10.986811 -160.89558
8008000000 -10.875956 -160.94804
8207950000 -10.729962 -161.04991
8407900000 -10.6232 -161.15477
8607850000 -10.474028 -161.18275
8807800000 -10.359817 -161.39931
9007750000 -10.222771 -161.40117
9207700000 -10.11465 -161.69591
9407650000 -9.9764357 -161.88033
9607600000 -9.8559866 -162.05774
9807550000 -9.7337532 -162.41284
10007500000 -9.6093473 -162.46771
10207450000 -9.4977465 -163.01591
10407400000 -9.3766413 -163.10359
10607350000 -9.2514734 -163.61824
10807300000 -9.1448383 -163.63364
11007250000 -9.0160942 -164.06137
11207200000 -8.9127264 -164.43604
11407150000 -8.7842016 -164.82076
11607100000 -8.6468458 -165.1875
11807050000 -8.5626669 -165.35779
12007000000 -8.3967571 -165.95404
12206950000 -8.3551741 -166.20638
12406900000 -8.172349 -166.78339
12606850000 -8.1467009 -167.0078
12806800000 -7.9695725 -167.7641
13006750000 -7.8937917 -168.10321
13206700000 -7.7757649 -168.67357
13406650000 -7.6708846 -169.08675
13606600000 -7.5952516 -169.69041
13806550000 -7.4592361 -170.17487
14006500000 -7.4001598 -170.80652
14206450000 -7.2483563 -171.15675
14406400000 -7.1895194 -171.81035
14606350000 -7.0725193 -172.29755
14806300000 -6.9886646 -173.06761
15006250000 -6.8692989 -173.51382
15206200000 -6.7743855 -174.13339
15406150000 -6.6997914 -174.67513
15606100000 -6.6104736 -175.3744
15806050000 -6.5179911 -176.02757
16006000000 -6.4147358 -176.56662
16205950000 -6.340416 -177.25285
16405900000 -6.2250414 -177.813
16605850000 -6.1634231 -178.47308
16805800000 -6.0739145 -179.15376
17005750000 -5.9739475 -179.88591
17205700000 -5.8898072 179.57515
17405650000 -5.8145814 179.0018
17605600000 -5.7504482 178.13762
17805550000 -5.6552734 177.53738
18005500000 -5.5787807 176.8416
18205450000 -5.5116377 176.224
18405400000 -5.4235344 175.43338
18605350000 -5.3520551 174.87578
18805300000 -5.2611513 174.18964
19005250000 -5.2091689 173.431
19205200000 -5.1180887 172.79324
19405150000 -5.0341463 171.92041
19605100000 -4.9802294 171.42865
19805050000 -4.8852239 170.4682
20005000000 -4.8485141 170.09705
20204950000 -4.7545433 169.01923
20404900000 -4.7023916 168.47363
20604850000 -4.6350198 167.599
20804800000 -4.5638099 166.92392
21004750000 -4.5371523 166.05605
21204700000 -4.4232559 165.18289
21404650000 -4.3888235 164.49832
21604600000 -4.3011389 163.90398
21804550000 -4.3063374 162.73347
22004500000 -4.1915293 162.22888
22204450000 -4.1800017 161.161
22404400000 -4.0902438 160.80321
22604350000 -4.0614948 159.61075
22804300000 -4.0030837 159.26631
23004250000 -3.9209321 158.20683
23204200000 -3.8958931 157.47658
23404150000 -3.8421032 156.79189
23604100000 -3.8158891 155.74019
23804050000 -3.7457142 155.17615
24004000000 -3.709878 154.20718
24203950000 -3.6764143 153.53612
24403900000 -3.609947 152.6451
24603850000 -3.5881629 151.8007
24803800000 -3.5072019 151.15608
25003750000 -3.5011742 150.2303
25203700000 -3.4684362 149.43246
25403650000 -3.4011214 148.41316
25603600000 -3.387795 147.84764
25803550000 -3.2951961 146.74809
26003500000 -3.3112161 146.304
26203450000 -3.2373066 145.20116
26403400000 -3.2387941 144.40726
26603350000 -3.1651723 143.46928
26803300000 -3.1488013 142.72272
27003250000 -3.1204107 142.1991
27203200000 -3.0949206 140.92682
27403150000 -3.0648685 140.43523
27603100000 -3.0256765 139.6123
27803050000 -3.0372543 138.74007
28003000000 -2.99752 138.17845
28202950000 -2.9751558 136.9454
28402900000 -2.9486623 136.54889
28602850000 -2.8997698 135.319
28802800000 -2.9108169 134.58327
29002750000 -2.8250551 133.85097
29202700000 -2.904016 132.77307
29402650000 -2.7988713 132.36028
29602600000 -2.868408 131.01234
29802550000 -2.790647 130.6328
30002500000 -2.795537 129.54553
30202450000 -2.7424948 129.23375
30402400000 -2.7563312 128.52109
30602350000 -2.7649722 127.10529
30802300000 -2.6685958 127.29862
31002250000 -2.6576173 126.24657
31202200000 -2.7357728 126.50609
31402150000 -2.7100475 124.134
31602100000 -2.7158797 124.09014
31802050000 -2.5762496 122.89745
32002000000 -2.7258906 123.10135
32201950000 -2.6398082 121.12
32401900000 -2.6130543 120.78501
32601850000 -2.6271021 119.95776
32801800000 -2.5917444 119.18926
33001750000 -2.6917782 118.35033
33201700000 -2.4911611 117.44308
33401650000 -2.6105304 116.7673
33601600000 -2.4990494 116.58958
33801550000 -2.5954568 115.22364
34001500000 -2.4685154 115.38224
34201450000 -2.4576223 113.38624
34401400000 -2.432626 114.11132
34601350000 -2.4643617 112.74657
34801300000 -2.5227306 112.12853
35001250000 -2.3811243 111.15436
35201200000 -2.4002657 110.14891
35401150000 -2.2719769 111.22287
35601100000 -2.564733 108.89781
35801050000 -2.3634574 108.73475
36001000000 -2.3736465 106.73501
36200950000 -2.3831284 106.8043
36400900000 -2.3519197 105.54435
36600850000 -2.4553852 104.56158
36800800000 -2.3403349 103.93213
37000750000 -2.3967717 102.81065
37200700000 -2.3611159 102.65974
37400650000 -2.3366461 101.67745
37600600000 -2.4508944 100.83215
37800550000 -2.2453723 100.19611
38000500000 -2.3930182 99.415375
38200450000 -2.2482765 98.98526
38400400000 -2.3006346 98.318718
38600350000 -2.3598466 98.027473
38800300000 -2.2793372 96.023415
39000250000 -2.3647196 96.823967
39200200000 -2.2648518 94.045456
39400150000 -2.378304 94.613533
39600100000 -2.3645494 93.017357
39800050000 -2.3656623 92.623962
40000000000 -2.4050117 91.959091
