!Agilent Technologies,N5227A,US51270434,A.10.00.00
!Agilent N5227A: A.10.00.00
!Date: Monday, March 30, 2026 11:27:32
!Correction: S11(Full 1 Port(1)) 
!S1P File: Measurement: S11:
# Hz S  dB   R 50
10000000 -15.148856 -178.63245
209950000 -14.975824 -179.37077
409900000 -14.938467 -178.58752
609850000 -14.942052 -177.97528
809800000 -14.924151 -177.13135
1009750000 -14.908553 -176.63013
1209700000 -14.882878 -175.87085
1409650000 -14.845871 -175.33299
1609600000 -14.815022 -174.71118
1809550000 -14.773695 -173.96716
2009500000 -14.726941 -173.37267
2209450000 -14.691913 -172.76016
2409400000 -14.628181 -172.20071
2609350000 -14.580542 -171.46217
2809300000 -14.502234 -170.9993
3009250000 -14.467325 -170.43622
3209200000 -14.368009 -170.04663
3409150000 -14.320223 -169.44487
3609100000 -14.241743 -168.89983
3809050000 -14.146346 -168.60155
4009000000 -14.076836 -167.95738
4208950000 -13.992695 -167.72557
4408900000 -13.921586 -167.12354
4608850000 -13.805236 -166.91985
4808800000 -13.745152 -166.24619
5008750000 -13.646562 -166.11319
5208700000 -13.571068 -165.81155
5408650000 -13.458122 -165.36098
5608600000 -13.372025 -165.14569
5808550000 -13.283298 -164.79312
6008500000 -13.151641 -164.68388
6208450000 -13.077995 -164.33766
6408400000 -12.957735 -164.12602
6608350000 -12.899823 -163.98878
6808300000 -12.743091 -163.91457
7008250000 -12.66606 -163.65782
7208200000 -12.545176 -163.41325
7408150000 -12.44641 -163.45749
7608100000 -12.344258 -163.38972
7808050000 -12.209054 -163.2739
8008000000 -12.125571 -163.23972
8207950000 -11.996223 -163.14302
8407900000 -11.920888 -163.16788
8607850000 -11.778616 -163.08675
8807800000 -11.67681 -163.15993
9007750000 -11.561161 -163.02414
9207700000 -11.46504 -163.26682
9407650000 -11.354491 -163.27576
9607600000 -11.239814 -163.3398
9807550000 -11.128577 -163.61354
10007500000 -11.024506 -163.47079
10207450000 -10.906781 -163.9238
10407400000 -10.802203 -163.84087
10607350000 -10.673775 -164.17845
10807300000 -10.579895 -164.08009
11007250000 -10.477433 -164.37534
11207200000 -10.374759 -164.64482
11407150000 -10.253532 -164.88562
11607100000 -10.117764 -165.12878
11807050000 -10.053042 -165.11562
12007000000 -9.8849812 -165.61322
12206950000 -9.8533411 -165.67828
12406900000 -9.6609316 -166.11691
12606850000 -9.6531363 -166.21021
12806800000 -9.4713736 -166.84048
13006750000 -9.4116449 -166.98662
13206700000 -9.2824306 -167.44968
13406650000 -9.1808977 -167.76416
13606600000 -9.1138973 -168.18146
13806550000 -8.9666834 -168.54535
14006500000 -8.9165554 -169.03676
14206450000 -8.7586737 -169.26486
14406400000 -8.7132359 -169.75215
14606350000 -8.5886126 -170.091
14806300000 -8.5111303 -170.78555
15006250000 -8.3784389 -171.05017
15206200000 -8.2770424 -171.58049
15406150000 -8.2004452 -171.9655
15606100000 -8.1078548 -172.51149
15806050000 -8.0205765 -173.05521
16006000000 -7.900867 -173.44324
16205950000 -7.8335528 -174.06763
16405900000 -7.7112103 -174.44061
16605850000 -7.6498108 -174.98991
16805800000 -7.5475717 -175.55525
17005750000 -7.4450612 -176.16805
17205700000 -7.3574615 -176.59911
17405650000 -7.2672644 -177.00458
17605600000 -7.2061119 -177.78574
17805550000 -7.0993438 -178.26758
18005500000 -7.0146432 -178.80606
18205450000 -6.9326677 -179.30016
18405400000 -6.8446589 -179.99416
18605350000 -6.7565594 179.55327
18805300000 -6.6529999 178.95473
19005250000 -6.6010227 178.3399
19205200000 -6.5005045 177.80606
19405150000 -6.4040337 177.04576
19605100000 -6.3423395 176.65666
19805050000 -6.2314939 175.76118
20005000000 -6.1895385 175.52402
20204950000 -6.0819759 174.56628
20404900000 -6.0165596 174.1104
20604850000 -5.9335079 173.32339
20804800000 -5.8576775 172.77005
21004750000 -5.8208251 172.00435
21204700000 -5.697052 171.17903
21404650000 -5.649816 170.58644
21604600000 -5.5305972 170.15875
21804550000 -5.5419755 168.99599
22004500000 -5.4024024 168.591
22204450000 -5.3870234 167.61086
22404400000 -5.2683387 167.34209
22604350000 -5.2407088 166.2094
22804300000 -5.1575818 165.92461
23004250000 -5.0712485 164.94083
23204200000 -5.0266871 164.23982
23404150000 -4.9502969 163.77933
23604100000 -4.9259338 162.73651
23804050000 -4.8249321 162.2068
24004000000 -4.7857819 161.27028
24203950000 -4.723701 160.75639
24403900000 -4.658412 159.89334
24603850000 -4.6115823 159.05269
24803800000 -4.5093288 158.42514
25003750000 -4.4914575 157.60283
25203700000 -4.4401479 156.87292
25403650000 -4.3664217 155.82753
25603600000 -4.3335881 155.34579
25803550000 -4.2218881 154.24538
26003500000 -4.229022 153.90347
26203450000 -4.1321735 152.76355
26403400000 -4.1187463 152.11139
26603350000 -4.0230017 151.20505
26803300000 -4.0046568 150.43596
27003250000 -3.9538944 149.90868
27203200000 -3.920774 148.61581
27403150000 -3.8600867 148.21608
27603100000 -3.8028305 147.45058
27803050000 -3.8113258 146.6454
28003000000 -3.7444799 146.1019
28202950000 -3.7119656 144.91248
28402900000 -3.6675677 144.52388
28602850000 -3.6051786 143.20419
28802800000 -3.6058273 142.46674
29002750000 -3.4917336 141.79697
29202700000 -3.5690918 140.77272
29402650000 -3.4272404 140.31001
29602600000 -3.5175683 139.00002
29802550000 -3.4057465 138.46886
30002500000 -3.3862936 137.4505
30202450000 -3.3141668 137.07881
30402400000 -3.3067889 136.50462
30602350000 -3.3283281 135.04285
30802300000 -3.1682887 135.11372
31002250000 -3.174192 134.12701
31202200000 -3.2370679 134.27428
31402150000 -3.2087977 132.05853
31602100000 -3.2009585 131.91853
31802050000 -3.0272007 130.68256
32002000000 -3.1633606 130.88835
32201950000 -3.0860164 128.8694
32401900000 -3.0307338 128.53099
32601850000 -3.0268183 127.73339
32801800000 -2.984221 126.87256
33001750000 -3.0763488 126.19213
33201700000 -2.8623259 125.04249
33401650000 -2.9919226 124.38986
33601600000 -2.8256755 124.02992
33801550000 -2.93274 122.73989
34001500000 -2.7958527 122.89043
34201450000 -2.7858083 120.77811
34401400000 -2.7210836 121.56857
34601350000 -2.7483523 120.18291
34801300000 -2.8108914 119.45589
35001250000 -2.6401637 118.3449
35201200000 -2.6584036 117.43459
35401150000 -2.4998031 118.67025
35601100000 -2.8063004 116.23585
35801050000 -2.5708051 115.93838
36001000000 -2.5907741 113.86882
36200950000 -2.5785038 113.87818
36400900000 -2.5475359 112.62737
36600850000 -2.6423936 111.74497
36800800000 -2.5170236 110.93559
37000750000 -2.5736997 109.80138
37200700000 -2.5009863 109.60397
37400650000 -2.4919379 108.40611
37600600000 -2.5749295 107.78912
37800550000 -2.3727443 106.92892
38000500000 -2.5042768 106.29523
38200450000 -2.3642564 105.8326
38400400000 -2.4208345 104.87788
38600350000 -2.4187298 104.71951
38800300000 -2.3629904 102.56564
39000250000 -2.433219 103.45578
39200200000 -2.3645804 100.49436
39400150000 -2.404187 101.03638
39600100000 -2.4271698 99.422897
39800050000 -2.3822973 98.88031
40000000000 -2.4363093 98.273628
