!Agilent Technologies,N5227A,US51270434,A.10.00.00
!Agilent N5227A: A.10.00.00
!Date: Monday, March 30, 2026 11:27:59
!Correction: S11(Full 1 Port(1)) 
!S1P File: Measurement: S11:
# Hz S  dB   R 50
10000000 -17.427933 -177.78883
209950000 -17.350817 -179.36699
409900000 -17.304142 -178.60423
609850000 -17.299564 -178.01639
809800000 -17.29138 -177.08931
1009750000 -17.285036 -176.63605
1209700000 -17.277536 -175.73172
1409650000 -17.215466 -175.34143
1609600000 -17.212065 -174.59863
1809550000 -17.137722 -173.81602
2009500000 -17.099874 -173.23543
2209450000 -17.087053 -172.69055
2409400000 -17.010839 -171.93224
2609350000 -16.974995 -171.24838
2809300000 -16.89382 -170.70804
3009250000 -16.884378 -170.19724
3209200000 -16.756676 -169.7529
3409150000 -16.730165 -169.09709
3609100000 -16.663357 -168.47868
3809050000 -16.584997 -168.13596
4009000000 -16.510239 -167.36838
4208950000 -16.41069 -167.11989
4408900000 -16.360403 -166.40825
4608850000 -16.261627 -166.20303
4808800000 -16.204079 -165.47118
5008750000 -16.106384 -165.18791
5208700000 -16.032507 -164.84407
5408650000 -15.921911 -164.30743
5608600000 -15.845021 -164.06171
5808550000 -15.772372 -163.59979
6008500000 -15.634723 -163.36426
6208450000 -15.584273 -162.98863
6408400000 -15.450788 -162.67738
6608350000 -15.420479 -162.42632
6808300000 -15.256091 -162.20834
7008250000 -15.181181 -161.94446
7208200000 -15.077091 -161.49875
7408150000 -14.975417 -161.59509
7608100000 -14.878313 -161.38921
7808050000 -14.730887 -161.1167
8008000000 -14.674653 -160.92055
8207950000 -14.529219 -160.76529
8407900000 -14.472864 -160.77892
8607850000 -14.313023 -160.5226
8807800000 -14.239074 -160.59729
9007750000 -14.120217 -160.21045
9207700000 -14.033386 -160.36339
9407650000 -13.905294 -160.31483
9607600000 -13.804749 -160.17664
9807550000 -13.695829 -160.38988
10007500000 -13.60491 -160.0957
10207450000 -13.494461 -160.64612
10407400000 -13.380438 -160.2525
10607350000 -13.252077 -160.5708
10807300000 -13.166287 -160.26555
11007250000 -13.048253 -160.58383
11207200000 -12.958525 -160.76825
11407150000 -12.828773 -160.82686
11607100000 -12.684865 -160.95239
11807050000 -12.633934 -160.7867
12007000000 -12.448009 -161.34514
12206950000 -12.437675 -161.10652
12406900000 -12.215332 -161.50824
12606850000 -12.241683 -161.29927
12806800000 -12.043386 -162.06729
13006750000 -11.978368 -162.05797
13206700000 -11.852296 -162.44078
13406650000 -11.752309 -162.53249
13606600000 -11.689766 -162.92238
13806550000 -11.526129 -163.13589
14006500000 -11.495054 -163.50861
14206450000 -11.311527 -163.64575
14406400000 -11.280536 -163.97195
14606350000 -11.145564 -164.20511
14806300000 -11.080155 -164.83273
15006250000 -10.928907 -164.95995
15206200000 -10.819757 -165.40881
15406150000 -10.75006 -165.63705
15606100000 -10.650411 -166.06235
15806050000 -10.553985 -166.55525
16006000000 -10.423848 -166.7588
16205950000 -10.369203 -167.25981
16405900000 -10.219834 -167.505
16605850000 -10.171249 -167.9265
16805800000 -10.070394 -168.37984
17005750000 -9.9560747 -168.91701
17205700000 -9.8602133 -169.19641
17405650000 -9.7568359 -169.45024
17605600000 -9.7104979 -170.18379
17805550000 -9.5771351 -170.49986
18005500000 -9.4938412 -171.04384
18205450000 -9.4155922 -171.33635
18405400000 -9.3112822 -171.97363
18605350000 -9.2207527 -172.23581
18805300000 -9.0996408 -172.71678
19005250000 -9.0587463 -173.2476
19205200000 -8.9277945 -173.68918
19405150000 -8.8335228 -174.40614
19605100000 -8.7645817 -174.54924
19805050000 -8.6327429 -175.42383
20005000000 -8.5784092 -175.33064
20204950000 -8.4824877 -176.41551
20404900000 -8.3976555 -176.68535
20604850000 -8.3036118 -177.33771
20804800000 -8.2199516 -177.72769
21004750000 -8.1903067 -178.3662
21204700000 -8.0350761 -179.2057
21404650000 -7.9831252 -179.65717
21604600000 -7.8364468 -179.90358
21804550000 -7.8763361 179.08755
22004500000 -7.6880193 178.74037
22204450000 -7.6873288 177.80959
22404400000 -7.5239272 177.74863
22604350000 -7.5095439 176.63132
22804300000 -7.3958325 176.57024
23004250000 -7.3030386 175.56915
23204200000 -7.2450223 175.04587
23404150000 -7.1353312 174.64282
23604100000 -7.1193748 173.79083
23804050000 -6.9935379 173.30338
24004000000 -6.9370618 172.48085
24203950000 -6.8560824 172.08818
24403900000 -6.7742338 171.32837
24603850000 -6.7296576 170.62245
24803800000 -6.5972676 170.03522
25003750000 -6.5725088 169.38359
25203700000 -6.5003657 168.77568
25403650000 -6.4163332 167.7065
25603600000 -6.3678694 167.44846
25803550000 -6.2408233 166.25986
26003500000 -6.2064376 166.17467
26203450000 -6.1159272 164.99031
26403400000 -6.0840836 164.50658
26603350000 -5.9864931 163.53964
26803300000 -5.9284616 162.86172
27003250000 -5.8539367 162.63597
27203200000 -5.8239036 161.32216
27403150000 -5.7308216 161.01239
27603100000 -5.6512389 160.28351
27803050000 -5.649097 159.61739
28003000000 -5.5537324 159.08177
28202950000 -5.5144768 157.8945
28402900000 -5.4318833 157.79871
28602850000 -5.3673105 156.43884
28802800000 -5.3498416 155.7867
29002750000 -5.194387 155.05756
29202700000 -5.2714715 154.22032
29402650000 -5.0809407 153.7538
29602600000 -5.1762829 152.5616
29802550000 -5.037921 152.04451
30002500000 -5.0115294 151.02376
30202450000 -4.8847551 150.77914
30402400000 -4.8541207 150.19734
30602350000 -4.8761353 148.78238
30802300000 -4.6891484 148.67149
31002250000 -4.6602211 147.87231
31202200000 -4.6756749 148.19051
31402150000 -4.6709852 145.98631
31602100000 -4.6306539 146.10991
31802050000 -4.4265285 144.33548
32002000000 -4.5260606 145.21046
32201950000 -4.4708347 142.80898
32401900000 -4.3646245 142.53358
32601850000 -4.3371434 141.90985
32801800000 -4.2682886 140.79012
33001750000 -4.3404679 140.32837
33201700000 -4.116478 138.9001
33401650000 -4.2183528 138.56082
33601600000 -4.0136876 137.88536
33801550000 -4.1271262 136.79051
34001500000 -3.9325452 136.63002
34201450000 -3.9599223 134.70137
34401400000 -3.7959094 135.70953
34601350000 -3.8435743 134.25998
34801300000 -3.8865337 133.56927
35001250000 -3.6879823 132.20982
35201200000 -3.6949015 131.30739
35401150000 -3.4409251 132.52977
35601100000 -3.8356016 130.50749
35801050000 -3.5437255 129.7728
36001000000 -3.567008 127.7075
36200950000 -3.4826806 127.89198
36400900000 -3.4419627 126.34396
36600850000 -3.5399959 125.56622
36800800000 -3.3758996 124.51328
37000750000 -3.4225569 123.55347
37200700000 -3.3233871 123.16846
37400650000 -3.2918727 121.98811
37600600000 -3.3879125 121.39069
37800550000 -3.1395085 120.22079
38000500000 -3.2629273 119.85773
38200450000 -3.0766153 118.95931
38400400000 -3.1424077 118.06444
38600350000 -3.0961895 118.04935
38800300000 -3.0257478 115.72831
39000250000 -3.0958383 116.76561
39200200000 -3.0033808 113.47524
39400150000 -3.0157781 114.25659
39600100000 -3.0079975 112.75895
39800050000 -2.9631264 112.05288
40000000000 -2.9828968 111.43485
