!Agilent Technologies,N5227A,US51270434,A.10.00.00
!Agilent N5227A: A.10.00.00
!Date: Monday, March 30, 2026 11:27:03
!Correction: S11(Full 1 Port(1)) 
!S1P File: Measurement: S11:
# Hz S  dB   R 50
10000000 -14.245391 -178.70129
209950000 -14.283218 -177.73425
409900000 -14.222526 -175.463
609850000 -14.160073 -173.44769
809800000 -14.055177 -171.22792
1009750000 -13.926043 -169.48575
1209700000 -13.777401 -167.47441
1409650000 -13.609009 -165.78935
1609600000 -13.409276 -164.2182
1809550000 -13.210087 -162.63295
2009500000 -13.009422 -161.27188
2209450000 -12.79255 -160.0415
2409400000 -12.560664 -159.01082
2609350000 -12.325179 -157.89963
2809300000 -12.062751 -157.17625
3009250000 -11.855798 -156.30156
3209200000 -11.592176 -155.80644
3409150000 -11.364235 -155.20258
3609100000 -11.114301 -154.80664
3809050000 -10.871614 -154.59123
4009000000 -10.642159 -154.21259
4208950000 -10.411771 -154.20947
4408900000 -10.187133 -154.00401
4608850000 -9.9561157 -154.09132
4808800000 -9.7408581 -153.96404
5008750000 -9.5131397 -154.13339
5208700000 -9.3263226 -154.35188
5408650000 -9.0947037 -154.52747
5608600000 -8.9019489 -154.79486
5808550000 -8.7123623 -155.00363
6008500000 -8.5136976 -155.48662
6208450000 -8.3397865 -155.78912
6408400000 -8.1426916 -156.23985
6608350000 -7.9909997 -156.64717
6808300000 -7.79669 -157.17235
7008250000 -7.6355882 -157.64069
7208200000 -7.4651442 -158.11261
7408150000 -7.3017669 -158.7164
7608100000 -7.1532817 -159.26915
7808050000 -6.9833293 -159.90961
8008000000 -6.8470201 -160.47922
8207950000 -6.6928105 -161.07224
8407900000 -6.5646844 -161.73428
8607850000 -6.4124656 -162.34976
8807800000 -6.2819438 -163.10889
9007750000 -6.1381021 -163.67903
9207700000 -6.0149193 -164.47237
9407650000 -5.8852935 -165.19939
9607600000 -5.7692313 -165.96046
9807550000 -5.6493239 -166.7345
10007500000 -5.5378208 -167.3942
10207450000 -5.4270892 -168.35443
10407400000 -5.3227229 -168.95358
10607350000 -5.2122645 -169.8456
10807300000 -5.1129789 -170.47691
11007250000 -5.0145268 -171.30096
11207200000 -4.9213204 -172.13986
11407150000 -4.820147 -172.9503
11607100000 -4.7126493 -173.7205
11807050000 -4.644062 -174.43115
12007000000 -4.5194168 -175.3042
12206950000 -4.4813166 -176.09171
12406900000 -4.3547173 -176.99951
12606850000 -4.3306317 -177.76607
12806800000 -4.205421 -178.73793
13006750000 -4.1563759 -179.55495
13206700000 -4.0672688 179.52693
13406650000 -3.9968629 178.69644
13606600000 -3.9428985 177.79147
13806550000 -3.8591447 176.97987
14006500000 -3.8145163 176.00957
14206450000 -3.7296858 175.26414
14406400000 -3.6947024 174.30228
14606350000 -3.6257401 173.51329
14806300000 -3.5700338 172.45218
15006250000 -3.5048027 171.76245
15206200000 -3.4527428 170.85956
15406150000 -3.4154935 169.99225
15606100000 -3.3649647 169.06613
15806050000 -3.3136208 168.14226
16006000000 -3.2551739 167.35986
16205950000 -3.2217052 166.42224
16405900000 -3.1715481 165.6899
16605850000 -3.1508281 164.72552
16805800000 -3.0999558 163.84846
17005750000 -3.0458946 162.97562
17205700000 -3.0224693 162.15955
17405650000 -2.9872248 161.3457
17605600000 -2.9612334 160.37784
17805550000 -2.9217169 159.63121
18005500000 -2.8896995 158.73842
18205450000 -2.8702888 157.94485
18405400000 -2.8250608 157.02582
18605350000 -2.8080497 156.29915
18805300000 -2.7700441 155.49707
19005250000 -2.7572694 154.57956
19205200000 -2.7204306 153.86272
19405150000 -2.6817307 152.96091
19605100000 -2.6754024 152.27701
19805050000 -2.6269968 151.30467
20005000000 -2.6482372 150.67776
20204950000 -2.5978394 149.67839
20404900000 -2.60202 149.04369
20604850000 -2.569598 148.10808
20804800000 -2.5552173 147.30119
21004750000 -2.5611024 146.33713
21204700000 -2.5061789 145.59613
21404650000 -2.5082619 144.76212
21604600000 -2.4742639 144.15533
21804550000 -2.5010102 142.95016
22004500000 -2.4658031 142.41313
22204450000 -2.4717453 141.3746
22404400000 -2.4477921 140.99562
22604350000 -2.4513841 139.80513
22804300000 -2.4476399 139.41354
23004250000 -2.4094954 138.43982
23204200000 -2.4259477 137.66783
23404150000 -2.4177132 137.04945
23604100000 -2.4260948 135.96748
23804050000 -2.4063728 135.49774
24004000000 -2.4062326 134.50505
24203950000 -2.4220898 133.8432
24403900000 -2.3924127 133.01845
24603850000 -2.4059751 132.22363
24803800000 -2.3684359 131.68892
25003750000 -2.3938935 130.74687
25203700000 -2.4038961 129.99046
25403650000 -2.3739052 129.10338
25603600000 -2.3960345 128.53261
25803550000 -2.3371844 127.6216
26003500000 -2.3992522 127.08956
26203450000 -2.3476062 126.18102
26403400000 -2.3848147 125.41286
26603350000 -2.3407974 124.62701
26803300000 -2.3584712 123.93372
27003250000 -2.37345 123.46335
27203200000 -2.3640332 122.32109
27403150000 -2.3711939 121.89852
27603100000 -2.3569882 121.17672
27803050000 -2.4110069 120.36991
28003000000 -2.4252205 119.82745
28202950000 -2.4097278 118.8746
28402900000 -2.4278169 118.42701
28602850000 -2.3823967 117.40157
28802800000 -2.4333587 116.67812
29002750000 -2.3774469 116.23463
29202700000 -2.4677453 115.16419
29402650000 -2.4115944 114.95326
29602600000 -2.4924757 113.59274
29802550000 -2.4564183 113.35808
30002500000 -2.4623218 112.41048
30202450000 -2.4539063 112.39442
30402400000 -2.4918063 111.6349
30602350000 -2.4933991 110.40651
30802300000 -2.4429772 110.69695
31002250000 -2.4522772 109.80324
31202200000 -2.5689335 109.89162
31402150000 -2.5297012 107.8856
31602100000 -2.5955441 107.77139
31802050000 -2.4585941 107.02761
32002000000 -2.6540611 106.95685
32201950000 -2.5426278 105.33244
32401900000 -2.5493407 105.06645
32601850000 -2.5855381 104.38775
32801800000 -2.5521019 103.85892
33001750000 -2.6765463 102.97903
33201700000 -2.4909613 102.57053
33401650000 -2.6354663 101.71469
33601600000 -2.5446374 101.79991
33801550000 -2.6284869 100.21796
34001500000 -2.5508912 100.82135
34201450000 -2.5190799 98.967178
34401400000 -2.5559578 99.72599
34601350000 -2.5872812 98.548569
34801300000 -2.6416929 97.90715
35001250000 -2.5162723 97.238022
35201200000 -2.5416446 96.301514
35401150000 -2.5046413 97.573463
35601100000 -2.7311201 95.107056
35801050000 -2.5655737 95.182182
36001000000 -2.5522609 93.325935
36200950000 -2.5955012 93.48101
36400900000 -2.5779955 92.390373
36600850000 -2.6581991 91.397545
36800800000 -2.5795071 91.089584
37000750000 -2.6290829 90.05925
37200700000 -2.6128445 90.038925
37400650000 -2.6092708 89.140579
37600600000 -2.7303247 88.363998
37800550000 -2.526768 88.049957
38000500000 -2.6853821 87.107216
38200450000 -2.5434265 87.197151
38400400000 -2.6480958 86.213402
38600350000 -2.6967473 86.152145
38800300000 -2.5789845 84.402786
39000250000 -2.7169962 85.033043
39200200000 -2.610584 82.450874
39400150000 -2.7211866 83.067459
39600100000 -2.7327628 81.743591
39800050000 -2.7355754 81.302872
40000000000 -2.7735395 80.671127
