!Agilent Technologies,N5227A,US51270434,A.10.00.00
!Agilent N5227A: A.10.00.00
!Date: Friday, February 13, 2026 14:19:30
!Correction: S11(Full 1 Port(1)) 
!S21(Off) 
!S12(Off) 
!S22(Off) 
!S2P File: Measurements: S11, S21, S12, S22:
# Hz S  dB   R 50
10000000 -0.00047901901 0.10236977 -200 45 -200 45 -200 45
259950000 -0.0007955152 -0.41332132 -200 45 -200 45 -200 45
509900000 -0.0063894507 -0.84518999 -200 45 -200 45 -200 45
759850000 -0.0020307335 -1.2541285 -200 45 -200 45 -200 45
1009800000 0.00054662424 -1.6495326 -200 45 -200 45 -200 45
1259750000 -0.010745713 -2.0652065 -200 45 -200 45 -200 45
1509700000 -0.014570409 -2.503974 -200 45 -200 45 -200 45
1759650000 -0.019862337 -2.8481331 -200 45 -200 45 -200 45
2009600000 -0.017019842 -3.2932937 -200 45 -200 45 -200 45
2259550000 -0.01588938 -3.6479819 -200 45 -200 45 -200 45
2509500000 -0.026249817 -4.0575614 -200 45 -200 45 -200 45
2759450000 -0.01834807 -4.498508 -200 45 -200 45 -200 45
3009400000 -0.027168855 -4.7999072 -200 45 -200 45 -200 45
3259350000 -0.026450941 -5.2046113 -200 45 -200 45 -200 45
3509300000 -0.008000616 -5.6587629 -200 45 -200 45 -200 45
3759250000 -0.030475402 -5.9657059 -200 45 -200 45 -200 45
4009200000 -0.025376705 -6.458035 -200 45 -200 45 -200 45
4259150000 -0.023982204 -6.792109 -200 45 -200 45 -200 45
4509100000 -0.03456882 -7.1025958 -200 45 -200 45 -200 45
4759050000 -0.016461292 -7.6932282 -200 45 -200 45 -200 45
5009000000 -0.026739936 -7.8169341 -200 45 -200 45 -200 45
5258950000 -0.03681368 -8.2232227 -200 45 -200 45 -200 45
5508900000 -0.010957922 -8.9110298 -200 45 -200 45 -200 45
5758850000 -0.033626724 -8.9223204 -200 45 -200 45 -200 45
6008800000 -0.037112385 -9.4957628 -200 45 -200 45 -200 45
6258750000 -0.014238564 -10.076124 -200 45 -200 45 -200 45
6508700000 -0.033972956 -9.9645395 -200 45 -200 45 -200 45
6758650000 -0.025099497 -10.787307 -200 45 -200 45 -200 45
7008600000 -0.010264928 -11.106768 -200 45 -200 45 -200 45
7258550000 -0.037325732 -11.106715 -200 45 -200 45 -200 45
7508500000 -0.036505796 -12.101981 -200 45 -200 45 -200 45
7758450000 -0.0065749739 -12.063564 -200 45 -200 45 -200 45
8008400000 -0.0294968 -12.376132 -200 45 -200 45 -200 45
8258350000 -0.014182198 -13.408469 -200 45 -200 45 -200 45
8508300000 -0.0064778896 -12.936172 -200 45 -200 45 -200 45
8758250000 -0.030813191 -13.765889 -200 45 -200 45 -200 45
9008200000 -0.0055203005 -14.463614 -200 45 -200 45 -200 45
9258150000 0.03704761 -13.798285 -200 45 -200 45 -200 45
9508100000 -0.027647665 -15.139048 -200 45 -200 45 -200 45
9758050000 0.025292408 -15.486942 -200 45 -200 45 -200 45
10008000000 0.05140518 -14.965882 -200 45 -200 45 -200 45
10257950000 -0.043691605 -16.553715 -200 45 -200 45 -200 45
10507900000 0.07683704 -16.285648 -200 45 -200 45 -200 45
10757850000 0.03887476 -16.356989 -200 45 -200 45 -200 45
11007800000 -0.030772436 -17.81863 -200 45 -200 45 -200 45
11257750000 0.1263565 -17.228413 -200 45 -200 45 -200 45
11507700000 0.035267774 -17.828281 -200 45 -200 45 -200 45
11757650000 -0.017619679 -18.980808 -200 45 -200 45 -200 45
12007600000 0.18298835 -18.660746 -200 45 -200 45 -200 45
12257550000 -0.021794546 -19.383924 -200 45 -200 45 -200 45
12507500000 0.073226824 -20.294514 -200 45 -200 45 -200 45
12757450000 0.16513875 -19.78299 -200 45 -200 45 -200 45
13007400000 -0.052110951 -20.958597 -200 45 -200 45 -200 45
13257350000 0.12739381 -21.149063 -200 45 -200 45 -200 45
13507300000 0.085721247 -21.153284 -200 45 -200 45 -200 45
13757250000 -0.025176246 -22.152822 -200 45 -200 45 -200 45
14007200000 0.1468315 -22.282892 -200 45 -200 45 -200 45
14257150000 0.066764921 -22.620625 -200 45 -200 45 -200 45
14507100000 0.01759514 -23.447163 -200 45 -200 45 -200 45
14757050000 0.27899376 -23.470058 -200 45 -200 45 -200 45
15007000000 0.016208939 -23.61145 -200 45 -200 45 -200 45
15256950000 0.075287528 -24.783457 -200 45 -200 45 -200 45
15506900000 0.25252524 -24.818729 -200 45 -200 45 -200 45
15756850000 -0.042540211 -25.294819 -200 45 -200 45 -200 45
16006800000 0.11533842 -25.91123 -200 45 -200 45 -200 45
16256750000 0.098549157 -25.894329 -200 45 -200 45 -200 45
16506700000 -0.027847448 -26.641026 -200 45 -200 45 -200 45
16756650000 0.26545727 -26.931547 -200 45 -200 45 -200 45
17006600000 0.098389469 -27.02475 -200 45 -200 45 -200 45
17256550000 0.03314079 -28.209734 -200 45 -200 45 -200 45
17506500000 0.3824397 -28.348465 -200 45 -200 45 -200 45
17756450000 0.05086036 -27.991407 -200 45 -200 45 -200 45
18006400000 0.12136586 -29.731827 -200 45 -200 45 -200 45
18256350000 0.43519485 -29.964931 -200 45 -200 45 -200 45
18506300000 -0.0090746023 -29.525225 -200 45 -200 45 -200 45
18756250000 0.14616396 -31.157852 -200 45 -200 45 -200 45
19006200000 0.28517669 -30.966459 -200 45 -200 45 -200 45
19256150000 -0.010023206 -30.739195 -200 45 -200 45 -200 45
19506100000 0.21766222 -32.55843 -200 45 -200 45 -200 45
19756050000 0.13239467 -32.018585 -200 45 -200 45 -200 45
20006000000 -0.012757699 -32.805622 -200 45 -200 45 -200 45
20255950000 0.29964823 -34.312637 -200 45 -200 45 -200 45
20505900000 0.064315662 -32.802715 -200 45 -200 45 -200 45
20755850000 0.083838411 -34.875408 -200 45 -200 45 -200 45
21005800000 0.364281 -36.312653 -200 45 -200 45 -200 45
21255750000 0.031201201 -34.184315 -200 45 -200 45 -200 45
21505700000 0.050901651 -36.591755 -200 45 -200 45 -200 45
21755650000 0.18267366 -36.629112 -200 45 -200 45 -200 45
22005600000 -0.007958727 -35.392014 -200 45 -200 45 -200 45
22255550000 0.10565923 -38.488972 -200 45 -200 45 -200 45
22505500000 0.11521608 -37.385876 -200 45 -200 45 -200 45
22755450000 -0.054834988 -37.099789 -200 45 -200 45 -200 45
23005400000 0.076916978 -39.69006 -200 45 -200 45 -200 45
23255350000 0.077809766 -37.770355 -200 45 -200 45 -200 45
23505300000 -0.034243967 -38.713913 -200 45 -200 45 -200 45
23755250000 0.087565392 -40.257561 -200 45 -200 45 -200 45
24005200000 0.0071350774 -38.728336 -200 45 -200 45 -200 45
24255150000 -0.10629458 -40.734257 -200 45 -200 45 -200 45
24505100000 0.043828376 -40.950283 -200 45 -200 45 -200 45
24755050000 0.00013683856 -39.711086 -200 45 -200 45 -200 45
25005000000 -0.086091675 -42.090637 -200 45 -200 45 -200 45
25254950000 0.055284839 -41.606327 -200 45 -200 45 -200 45
25504900000 -0.036083076 -41.475887 -200 45 -200 45 -200 45
25754850000 -0.047496915 -43.433418 -200 45 -200 45 -200 45
26004800000 0.048085142 -42.068409 -200 45 -200 45 -200 45
26254750000 -0.042324178 -43.513596 -200 45 -200 45 -200 45
26504700000 -0.011445931 -45.328327 -200 45 -200 45 -200 45
26754650000 0.037130367 -43.403156 -200 45 -200 45 -200 45
27004600000 -0.087704323 -44.733631 -200 45 -200 45 -200 45
27254550000 -0.032180123 -45.448776 -200 45 -200 45 -200 45
27504500000 0.018526342 -44.335854 -200 45 -200 45 -200 45
27754450000 -0.072679728 -45.992805 -200 45 -200 45 -200 45
28004400000 0.030957304 -46.055717 -200 45 -200 45 -200 45
28254350000 -0.039608363 -46.236927 -200 45 -200 45 -200 45
28504300000 -0.107677 -47.773544 -200 45 -200 45 -200 45
28754250000 0.029561685 -46.722141 -200 45 -200 45 -200 45
29004200000 -0.081920177 -47.762779 -200 45 -200 45 -200 45
29254150000 -0.052438963 -48.929008 -200 45 -200 45 -200 45
29504100000 0.042832009 -47.950512 -200 45 -200 45 -200 45
29754050000 -0.19584191 -49.99139 -200 45 -200 45 -200 45
30004000000 -0.09745837 -50.26178 -200 45 -200 45 -200 45
30253950000 0.05988716 -49.012398 -200 45 -200 45 -200 45
30503900000 -0.12275357 -50.547501 -200 45 -200 45 -200 45
30753850000 -0.020219341 -50.937843 -200 45 -200 45 -200 45
31003800000 0.054205682 -50.364651 -200 45 -200 45 -200 45
31253750000 -0.041831072 -51.495914 -200 45 -200 45 -200 45
31503700000 0.040344782 -51.320961 -200 45 -200 45 -200 45
31753650000 -0.027986726 -52.019238 -200 45 -200 45 -200 45
32003600000 -0.0061797746 -52.687637 -200 45 -200 45 -200 45
32253550000 0.067578666 -52.905285 -200 45 -200 45 -200 45
32503500000 -0.078105941 -54.251808 -200 45 -200 45 -200 45
32753450000 0.062532209 -54.053562 -200 45 -200 45 -200 45
33003400000 -0.01454616 -54.005817 -200 45 -200 45 -200 45
33253350000 -0.16101132 -55.891552 -200 45 -200 45 -200 45
33503300000 0.11086074 -55.489983 -200 45 -200 45 -200 45
33753250000 -0.064927101 -54.974213 -200 45 -200 45 -200 45
34003200000 -0.26393399 -56.861614 -200 45 -200 45 -200 45
34253150000 0.022265833 -56.433189 -200 45 -200 45 -200 45
34503100000 -0.05372519 -56.540825 -200 45 -200 45 -200 45
34753050000 -0.063128106 -57.610619 -200 45 -200 45 -200 45
35003000000 0.081823356 -57.559704 -200 45 -200 45 -200 45
35252950000 -0.066975035 -58.356426 -200 45 -200 45 -200 45
35502900000 0.039884027 -58.857578 -200 45 -200 45 -200 45
35752850000 -0.10311414 -58.626896 -200 45 -200 45 -200 45
36002800000 -0.28805226 -59.783607 -200 45 -200 45 -200 45
36252750000 0.083322987 -60.258457 -200 45 -200 45 -200 45
36502700000 -0.1297183 -59.692146 -200 45 -200 45 -200 45
36752650000 -0.43204993 -60.752163 -200 45 -200 45 -200 45
37002600000 0.041767634 -61.492386 -200 45 -200 45 -200 45
37252550000 -0.11686747 -60.289761 -200 45 -200 45 -200 45
37502500000 -0.25127459 -61.723873 -200 45 -200 45 -200 45
37752450000 0.04658768 -62.736961 -200 45 -200 45 -200 45
38002400000 -0.1579214 -61.806602 -200 45 -200 45 -200 45
38252350000 -0.17868578 -62.819744 -200 45 -200 45 -200 45
38502300000 0.018527308 -64.036011 -200 45 -200 45 -200 45
38752250000 -0.044240225 -63.358234 -200 45 -200 45 -200 45
39002200000 -0.029479459 -64.792961 -200 45 -200 45 -200 45
39252150000 0.031630736 -64.682426 -200 45 -200 45 -200 45
39502100000 -0.0015908058 -64.343323 -200 45 -200 45 -200 45
39752050000 0.0044568949 -66.262833 -200 45 -200 45 -200 45
40002000000 0.035808671 -65.103874 -200 45 -200 45 -200 45
40251950000 0.052445117 -64.744186 -200 45 -200 45 -200 45
40501900000 0.020089066 -67.513229 -200 45 -200 45 -200 45
40751850000 0.097502902 -67.239311 -200 45 -200 45 -200 45
41001800000 0.093074709 -67.483139 -200 45 -200 45 -200 45
41251750000 -0.01599768 -69.209389 -200 45 -200 45 -200 45
41501700000 0.064445615 -68.875092 -200 45 -200 45 -200 45
41751650000 0.083536185 -69.053818 -200 45 -200 45 -200 45
42001600000 -0.0009779667 -70.214844 -200 45 -200 45 -200 45
42251550000 0.046717204 -70.820999 -200 45 -200 45 -200 45
42501500000 0.0032654949 -71.115173 -200 45 -200 45 -200 45
42751450000 -0.0040688296 -71.623283 -200 45 -200 45 -200 45
43001400000 0.010098197 -72.211235 -200 45 -200 45 -200 45
43251350000 -0.042396646 -72.451225 -200 45 -200 45 -200 45
43501300000 -0.024595818 -73.02092 -200 45 -200 45 -200 45
43751250000 0.039815035 -73.677208 -200 45 -200 45 -200 45
44001200000 -0.023063492 -73.935516 -200 45 -200 45 -200 45
44251150000 0.0086964276 -74.906898 -200 45 -200 45 -200 45
44501100000 -0.067197986 -75.438148 -200 45 -200 45 -200 45
44751050000 -0.06098083 -75.717834 -200 45 -200 45 -200 45
45001000000 -0.053768154 -75.918015 -200 45 -200 45 -200 45
45250950000 -0.054444168 -76.437782 -200 45 -200 45 -200 45
45500900000 -0.077577353 -77.21772 -200 45 -200 45 -200 45
45750850000 -0.084341146 -77.429008 -200 45 -200 45 -200 45
46000800000 -0.10362777 -77.840126 -200 45 -200 45 -200 45
46250750000 -0.057108078 -78.318787 -200 45 -200 45 -200 45
46500700000 -0.095882326 -78.886276 -200 45 -200 45 -200 45
46750650000 -0.20839338 -79.942024 -200 45 -200 45 -200 45
47000600000 -0.1640141 -80.101456 -200 45 -200 45 -200 45
47250550000 -0.21918748 -79.991409 -200 45 -200 45 -200 45
47500500000 -0.18981017 -81.055939 -200 45 -200 45 -200 45
47750450000 -0.23305508 -81.550339 -200 45 -200 45 -200 45
48000400000 -0.32350323 -81.016365 -200 45 -200 45 -200 45
48250350000 -0.20941053 -81.727936 -200 45 -200 45 -200 45
48500300000 -0.23358528 -82.643944 -200 45 -200 45 -200 45
48750250000 -0.41991875 -81.818001 -200 45 -200 45 -200 45
49000200000 -0.16261844 -83.070641 -200 45 -200 45 -200 45
49250150000 -0.22695787 -83.360443 -200 45 -200 45 -200 45
49500100000 -0.28414351 -83.315315 -200 45 -200 45 -200 45
49750050000 -0.0059475047 -84.093628 -200 45 -200 45 -200 45
50000000000 -0.15357712 -85.078018 -200 45 -200 45 -200 45
