!Agilent Technologies,N5227A,US51270434,A.10.00.00
!Agilent N5227A: A.10.00.00
!Date: Friday, February 13, 2026 14:18:15
!Correction: S11(Full 1 Port(1)) 
!S21(Off) 
!S12(Off) 
!S22(Off) 
!S2P File: Measurements: S11, S21, S12, S22:
# Hz S  dB   R 50
10000000 -0.0039869347 0.01781266 -200 45 -200 45 -200 45
259950000 -0.0039666463 -0.43620151 -200 45 -200 45 -200 45
509900000 -0.0049730716 -0.86481893 -200 45 -200 45 -200 45
759850000 0.0012163548 -1.2494568 -200 45 -200 45 -200 45
1009800000 -0.0067805187 -1.6480132 -200 45 -200 45 -200 45
1259750000 -0.010462188 -2.0969956 -200 45 -200 45 -200 45
1509700000 -0.010326259 -2.4946613 -200 45 -200 45 -200 45
1759650000 -0.012608529 -2.8700495 -200 45 -200 45 -200 45
2009600000 -0.015950773 -3.3016593 -200 45 -200 45 -200 45
2259550000 -0.019241635 -3.6825225 -200 45 -200 45 -200 45
2509500000 -0.021654196 -4.0519948 -200 45 -200 45 -200 45
2759450000 -0.019146476 -4.474 -200 45 -200 45 -200 45
3009400000 -0.020860506 -4.8518147 -200 45 -200 45 -200 45
3259350000 -0.019564858 -5.2581778 -200 45 -200 45 -200 45
3509300000 -0.014501232 -5.6624775 -200 45 -200 45 -200 45
3759250000 -0.016903123 -6.0508485 -200 45 -200 45 -200 45
4009200000 -0.018343668 -6.4601803 -200 45 -200 45 -200 45
4259150000 -0.017751737 -6.8605537 -200 45 -200 45 -200 45
4509100000 -0.021979857 -7.2409558 -200 45 -200 45 -200 45
4759050000 -0.017428057 -7.6682415 -200 45 -200 45 -200 45
5009000000 -0.014642639 -7.9962921 -200 45 -200 45 -200 45
5258950000 -0.017722741 -8.3959007 -200 45 -200 45 -200 45
5508900000 -0.0098586204 -8.8784857 -200 45 -200 45 -200 45
5758850000 -0.022998838 -9.220376 -200 45 -200 45 -200 45
6008800000 -0.022197301 -9.6443415 -200 45 -200 45 -200 45
6258750000 -0.014865841 -10.084081 -200 45 -200 45 -200 45
6508700000 -0.016411763 -10.376967 -200 45 -200 45 -200 45
6758650000 -0.017963821 -10.871526 -200 45 -200 45 -200 45
7008600000 -0.011513097 -11.268252 -200 45 -200 45 -200 45
7258550000 -0.0221636 -11.609741 -200 45 -200 45 -200 45
7508500000 -0.024725681 -12.115906 -200 45 -200 45 -200 45
7758450000 -0.017177382 -12.436055 -200 45 -200 45 -200 45
8008400000 -0.020535277 -12.813326 -200 45 -200 45 -200 45
8258350000 -0.016403394 -13.37486 -200 45 -200 45 -200 45
8508300000 -0.022222327 -13.597816 -200 45 -200 45 -200 45
8758250000 -0.024499333 -14.088032 -200 45 -200 45 -200 45
9008200000 -0.014426684 -14.554375 -200 45 -200 45 -200 45
9258150000 -0.013815323 -14.666561 -200 45 -200 45 -200 45
9508100000 -0.025628058 -15.286952 -200 45 -200 45 -200 45
9758050000 -0.016556721 -15.728913 -200 45 -200 45 -200 45
10008000000 -0.011592022 -15.898903 -200 45 -200 45 -200 45
10257950000 -0.032674897 -16.574492 -200 45 -200 45 -200 45
10507900000 -0.012868091 -16.824383 -200 45 -200 45 -200 45
10757850000 -0.018155623 -17.086536 -200 45 -200 45 -200 45
11007800000 -0.03779057 -17.779022 -200 45 -200 45 -200 45
11257750000 0.00040074126 -17.936258 -200 45 -200 45 -200 45
11507700000 -0.016460311 -18.34417 -200 45 -200 45 -200 45
11757650000 -0.042588655 -18.933939 -200 45 -200 45 -200 45
12007600000 0.017592829 -19.146143 -200 45 -200 45 -200 45
12257550000 -0.030749395 -19.618757 -200 45 -200 45 -200 45
12507500000 -0.021384459 -20.181496 -200 45 -200 45 -200 45
12757450000 0.013096651 -20.33283 -200 45 -200 45 -200 45
13007400000 -0.049486857 -20.912552 -200 45 -200 45 -200 45
13257350000 -0.014357189 -21.278095 -200 45 -200 45 -200 45
13507300000 -0.0062138643 -21.548653 -200 45 -200 45 -200 45
13757250000 -0.035251386 -22.062279 -200 45 -200 45 -200 45
14007200000 0.0024959617 -22.412205 -200 45 -200 45 -200 45
14257150000 -0.0067442008 -22.814037 -200 45 -200 45 -200 45
14507100000 -0.035468541 -23.284241 -200 45 -200 45 -200 45
14757050000 0.038080603 -23.602591 -200 45 -200 45 -200 45
15007000000 -0.018972084 -23.857407 -200 45 -200 45 -200 45
15256950000 -0.01319115 -24.48535 -200 45 -200 45 -200 45
15506900000 0.050781563 -24.898026 -200 45 -200 45 -200 45
15756850000 -0.042055544 -25.257858 -200 45 -200 45 -200 45
16006800000 -0.014671515 -25.741516 -200 45 -200 45 -200 45
16256750000 0.00183522 -26.052099 -200 45 -200 45 -200 45
16506700000 -0.038102604 -26.429564 -200 45 -200 45 -200 45
16756650000 0.042666607 -26.944792 -200 45 -200 45 -200 45
17006600000 0.015508892 -27.262812 -200 45 -200 45 -200 45
17256550000 -0.038249791 -27.823929 -200 45 -200 45 -200 45
17506500000 0.064156301 -28.23735 -200 45 -200 45 -200 45
17756450000 0.0048543597 -28.248976 -200 45 -200 45 -200 45
18006400000 -0.0081702648 -29.052814 -200 45 -200 45 -200 45
18256350000 0.1081225 -29.648233 -200 45 -200 45 -200 45
18506300000 -0.016452527 -29.548761 -200 45 -200 45 -200 45
18756250000 -0.021063857 -30.356752 -200 45 -200 45 -200 45
19006200000 0.060869336 -30.716106 -200 45 -200 45 -200 45
19256150000 -0.0046425243 -30.666178 -200 45 -200 45 -200 45
19506100000 0.017488493 -31.725965 -200 45 -200 45 -200 45
19756050000 0.034761194 -31.924715 -200 45 -200 45 -200 45
20006000000 -0.040332239 -32.117962 -200 45 -200 45 -200 45
20255950000 0.023628343 -33.110107 -200 45 -200 45 -200 45
20505900000 0.01591686 -32.903065 -200 45 -200 45 -200 45
20755850000 -0.015055385 -33.440643 -200 45 -200 45 -200 45
21005800000 0.050253861 -34.608337 -200 45 -200 45 -200 45
21255750000 0.016422091 -34.177158 -200 45 -200 45 -200 45
21505700000 -0.040677696 -34.881111 -200 45 -200 45 -200 45
21755650000 0.0037629069 -35.451481 -200 45 -200 45 -200 45
22005600000 0.0090800105 -35.182388 -200 45 -200 45 -200 45
22255550000 -0.015211942 -36.388268 -200 45 -200 45 -200 45
22505500000 0.0056241392 -36.708488 -200 45 -200 45 -200 45
22755450000 -0.029192371 -36.482113 -200 45 -200 45 -200 45
23005400000 -0.039311841 -37.508156 -200 45 -200 45 -200 45
23255350000 0.015072958 -37.584579 -200 45 -200 45 -200 45
23505300000 -0.0047929483 -37.755936 -200 45 -200 45 -200 45
23755250000 -0.018609272 -38.710129 -200 45 -200 45 -200 45
24005200000 0.010165181 -38.726288 -200 45 -200 45 -200 45
24255150000 -0.043332994 -39.064777 -200 45 -200 45 -200 45
24505100000 -0.02916003 -39.687592 -200 45 -200 45 -200 45
24755050000 0.02695637 -39.668175 -200 45 -200 45 -200 45
25005000000 -0.023072375 -40.31609 -200 45 -200 45 -200 45
25254950000 0.017218573 -40.8228 -200 45 -200 45 -200 45
25504900000 0.01015598 -40.924721 -200 45 -200 45 -200 45
25754850000 -0.031993106 -41.717445 -200 45 -200 45 -200 45
26004800000 0.026628528 -41.94585 -200 45 -200 45 -200 45
26254750000 0.027406212 -42.331593 -200 45 -200 45 -200 45
26504700000 -0.02011906 -43.256779 -200 45 -200 45 -200 45
26754650000 0.024582636 -43.339638 -200 45 -200 45 -200 45
27004600000 0.00052686536 -43.604496 -200 45 -200 45 -200 45
27254550000 -0.030269189 -44.186131 -200 45 -200 45 -200 45
27504500000 0.042040918 -44.327827 -200 45 -200 45 -200 45
27754450000 0.011905016 -44.864231 -200 45 -200 45 -200 45
28004400000 0.013914419 -45.47504 -200 45 -200 45 -200 45
28254350000 0.026851626 -45.767162 -200 45 -200 45 -200 45
28504300000 -0.013364779 -46.340244 -200 45 -200 45 -200 45
28754250000 0.027043635 -46.442589 -200 45 -200 45 -200 45
29004200000 0.006318497 -46.80225 -200 45 -200 45 -200 45
29254150000 -0.011458472 -47.574726 -200 45 -200 45 -200 45
29504100000 0.044280462 -47.852367 -200 45 -200 45 -200 45
29754050000 -0.0085181929 -48.123714 -200 45 -200 45 -200 45
30004000000 -0.023001904 -48.756954 -200 45 -200 45 -200 45
30253950000 0.058789991 -49.046829 -200 45 -200 45 -200 45
30503900000 0.029890003 -49.369091 -200 45 -200 45 -200 45
30753850000 0.032639623 -50.056263 -200 45 -200 45 -200 45
31003800000 0.071386769 -50.316189 -200 45 -200 45 -200 45
31253750000 0.042213224 -50.829926 -200 45 -200 45 -200 45
31503700000 0.053520739 -51.157833 -200 45 -200 45 -200 45
31753650000 0.053920135 -51.571758 -200 45 -200 45 -200 45
32003600000 0.045931164 -52.151142 -200 45 -200 45 -200 45
32253550000 0.10001937 -52.579643 -200 45 -200 45 -200 45
32503500000 0.048942588 -53.132515 -200 45 -200 45 -200 45
32753450000 0.046682242 -53.555244 -200 45 -200 45 -200 45
33003400000 0.1022533 -53.893787 -200 45 -200 45 -200 45
33253350000 0.028292093 -54.210228 -200 45 -200 45 -200 45
33503300000 0.049159169 -54.950912 -200 45 -200 45 -200 45
33753250000 0.08362104 -55.178764 -200 45 -200 45 -200 45
34003200000 0.022472667 -55.658699 -200 45 -200 45 -200 45
34253150000 0.027047537 -56.010036 -200 45 -200 45 -200 45
34503100000 0.062291011 -56.568604 -200 45 -200 45 -200 45
34753050000 0.0567111 -57.002155 -200 45 -200 45 -200 45
35003000000 0.083068945 -57.51852 -200 45 -200 45 -200 45
35252950000 0.069340862 -57.788776 -200 45 -200 45 -200 45
35502900000 0.046815161 -58.431362 -200 45 -200 45 -200 45
35752850000 0.059547614 -58.807869 -200 45 -200 45 -200 45
36002800000 0.049499623 -59.002911 -200 45 -200 45 -200 45
36252750000 0.062540472 -59.726536 -200 45 -200 45 -200 45
36502700000 0.098615602 -60.365738 -200 45 -200 45 -200 45
36752650000 0.033061333 -60.364639 -200 45 -200 45 -200 45
37002600000 0.066620514 -60.817028 -200 45 -200 45 -200 45
37252550000 0.086419247 -61.337395 -200 45 -200 45 -200 45
37502500000 0.054879334 -61.846024 -200 45 -200 45 -200 45
37752450000 0.043052625 -62.535347 -200 45 -200 45 -200 45
38002400000 0.057425816 -62.960819 -200 45 -200 45 -200 45
38252350000 -0.0036025518 -63.030235 -200 45 -200 45 -200 45
38502300000 0.0098878732 -63.975704 -200 45 -200 45 -200 45
38752250000 0.050492477 -64.127411 -200 45 -200 45 -200 45
39002200000 0.024601756 -64.623245 -200 45 -200 45 -200 45
39252150000 0.029343218 -65.379341 -200 45 -200 45 -200 45
39502100000 0.051692232 -65.350159 -200 45 -200 45 -200 45
39752050000 -0.0025338735 -66.115608 -200 45 -200 45 -200 45
40002000000 0.035431571 -66.383812 -200 45 -200 45 -200 45
40251950000 0.076822385 -66.350784 -200 45 -200 45 -200 45
40501900000 0.018322337 -67.338631 -200 45 -200 45 -200 45
40751850000 0.024845045 -67.857559 -200 45 -200 45 -200 45
41001800000 0.065674067 -68.067146 -200 45 -200 45 -200 45
41251750000 0.040155921 -68.728317 -200 45 -200 45 -200 45
41501700000 0.018309683 -68.986519 -200 45 -200 45 -200 45
41751650000 0.036901396 -69.213463 -200 45 -200 45 -200 45
42001600000 0.017611247 -69.994499 -200 45 -200 45 -200 45
42251550000 0.041782465 -70.716423 -200 45 -200 45 -200 45
42501500000 0.017375235 -71.100464 -200 45 -200 45 -200 45
42751450000 -0.0064188358 -71.580788 -200 45 -200 45 -200 45
43001400000 -0.023309894 -72.068268 -200 45 -200 45 -200 45
43251350000 -0.016846908 -72.293594 -200 45 -200 45 -200 45
43501300000 0.0051717507 -72.718315 -200 45 -200 45 -200 45
43751250000 0.032487851 -73.52816 -200 45 -200 45 -200 45
44001200000 -0.037727728 -73.928047 -200 45 -200 45 -200 45
44251150000 0.0010564649 -74.303322 -200 45 -200 45 -200 45
44501100000 0.019446973 -74.872841 -200 45 -200 45 -200 45
44751050000 -0.059185904 -75.60302 -200 45 -200 45 -200 45
45001000000 -0.036521219 -75.893631 -200 45 -200 45 -200 45
45250950000 -0.056302212 -76.185127 -200 45 -200 45 -200 45
45500900000 -0.090386346 -76.845505 -200 45 -200 45 -200 45
45750850000 -0.07811974 -77.2314 -200 45 -200 45 -200 45
46000800000 -0.069135189 -77.801979 -200 45 -200 45 -200 45
46250750000 -0.088547058 -78.295372 -200 45 -200 45 -200 45
46500700000 -0.098686084 -78.710602 -200 45 -200 45 -200 45
46750650000 -0.18725479 -79.448524 -200 45 -200 45 -200 45
47000600000 -0.15756123 -79.814201 -200 45 -200 45 -200 45
47250550000 -0.13202097 -79.861992 -200 45 -200 45 -200 45
47500500000 -0.21134974 -80.488914 -200 45 -200 45 -200 45
47750450000 -0.18863864 -80.738663 -200 45 -200 45 -200 45
48000400000 -0.14100471 -81.238159 -200 45 -200 45 -200 45
48250350000 -0.26642674 -81.390114 -200 45 -200 45 -200 45
48500300000 -0.24155642 -81.611694 -200 45 -200 45 -200 45
48750250000 -0.12943788 -82.178764 -200 45 -200 45 -200 45
49000200000 -0.29956686 -82.210915 -200 45 -200 45 -200 45
49250150000 -0.14703207 -82.686554 -200 45 -200 45 -200 45
49500100000 -0.074532218 -83.223152 -200 45 -200 45 -200 45
49750050000 -0.21594435 -83.810959 -200 45 -200 45 -200 45
50000000000 -0.082549006 -83.844452 -200 45 -200 45 -200 45
