!Agilent Technologies,N5227A,US51270434,A.10.00.00
!Agilent N5227A: A.10.00.00
!Date: Friday, February 13, 2026 14:18:45
!Correction: S11(Full 1 Port(1)) 
!S21(Off) 
!S12(Off) 
!S22(Off) 
!S2P File: Measurements: S11, S21, S12, S22:
# Hz S  dB   R 50
10000000 0.0021608223 0.0099311462 -200 45 -200 45 -200 45
259950000 -0.0011332431 -0.42946029 -200 45 -200 45 -200 45
509900000 -0.0015040272 -0.85763025 -200 45 -200 45 -200 45
759850000 0.0014977464 -1.2432525 -200 45 -200 45 -200 45
1009800000 -0.0043718708 -1.6771616 -200 45 -200 45 -200 45
1259750000 -0.012427963 -2.0813801 -200 45 -200 45 -200 45
1509700000 -0.01200853 -2.4919777 -200 45 -200 45 -200 45
1759650000 -0.011881714 -2.8603444 -200 45 -200 45 -200 45
2009600000 -0.011291775 -3.2650642 -200 45 -200 45 -200 45
2259550000 -0.017776262 -3.6842048 -200 45 -200 45 -200 45
2509500000 -0.021282673 -4.064671 -200 45 -200 45 -200 45
2759450000 -0.018490536 -4.4647942 -200 45 -200 45 -200 45
3009400000 -0.017269332 -4.8536558 -200 45 -200 45 -200 45
3259350000 -0.017807607 -5.2446303 -200 45 -200 45 -200 45
3509300000 -0.0092888558 -5.6505151 -200 45 -200 45 -200 45
3759250000 -0.02054262 -6.0362611 -200 45 -200 45 -200 45
4009200000 -0.017601328 -6.4483628 -200 45 -200 45 -200 45
4259150000 -0.018204745 -6.8467612 -200 45 -200 45 -200 45
4509100000 -0.02189392 -7.2409353 -200 45 -200 45 -200 45
4759050000 -0.01791364 -7.6510997 -200 45 -200 45 -200 45
5009000000 -0.016470382 -7.9846296 -200 45 -200 45 -200 45
5258950000 -0.02312135 -8.3927412 -200 45 -200 45 -200 45
5508900000 -0.010439057 -8.873313 -200 45 -200 45 -200 45
5758850000 -0.02250931 -9.216547 -200 45 -200 45 -200 45
6008800000 -0.021986106 -9.6407671 -200 45 -200 45 -200 45
6258750000 -0.014562751 -10.074961 -200 45 -200 45 -200 45
6508700000 -0.018733343 -10.352332 -200 45 -200 45 -200 45
6758650000 -0.018149238 -10.867624 -200 45 -200 45 -200 45
7008600000 -0.01554771 -11.263491 -200 45 -200 45 -200 45
7258550000 -0.021666562 -11.553279 -200 45 -200 45 -200 45
7508500000 -0.023570424 -12.108768 -200 45 -200 45 -200 45
7758450000 -0.018061265 -12.411323 -200 45 -200 45 -200 45
8008400000 -0.019851115 -12.798324 -200 45 -200 45 -200 45
8258350000 -0.018973313 -13.353159 -200 45 -200 45 -200 45
8508300000 -0.023740487 -13.538309 -200 45 -200 45 -200 45
8758250000 -0.02750973 -14.067271 -200 45 -200 45 -200 45
9008200000 -0.019426366 -14.546445 -200 45 -200 45 -200 45
9258150000 -0.013566936 -14.617638 -200 45 -200 45 -200 45
9508100000 -0.025641024 -15.282779 -200 45 -200 45 -200 45
9758050000 -0.015820554 -15.721506 -200 45 -200 45 -200 45
10008000000 -0.0099517684 -15.832787 -200 45 -200 45 -200 45
10257950000 -0.031183872 -16.550737 -200 45 -200 45 -200 45
10507900000 -0.0089968806 -16.754929 -200 45 -200 45 -200 45
10757850000 -0.013720545 -17.023027 -200 45 -200 45 -200 45
11007800000 -0.03470502 -17.77977 -200 45 -200 45 -200 45
11257750000 0.0075467299 -17.885454 -200 45 -200 45 -200 45
11507700000 -0.015287595 -18.294798 -200 45 -200 45 -200 45
11757650000 -0.03691927 -18.944008 -200 45 -200 45 -200 45
12007600000 0.024573717 -19.102808 -200 45 -200 45 -200 45
12257550000 -0.029004894 -19.571186 -200 45 -200 45 -200 45
12507500000 -0.0087284949 -20.182524 -200 45 -200 45 -200 45
12757450000 0.021347392 -20.296841 -200 45 -200 45 -200 45
13007400000 -0.05150203 -20.893236 -200 45 -200 45 -200 45
13257350000 2.3097624e-005 -21.250631 -200 45 -200 45 -200 45
13507300000 0.001701991 -21.489094 -200 45 -200 45 -200 45
13757250000 -0.032863948 -22.057049 -200 45 -200 45 -200 45
14007200000 0.0078748474 -22.374538 -200 45 -200 45 -200 45
14257150000 -0.0028756824 -22.790966 -200 45 -200 45 -200 45
14507100000 -0.031100374 -23.268103 -200 45 -200 45 -200 45
14757050000 0.055898495 -23.546919 -200 45 -200 45 -200 45
15007000000 -0.010971129 -23.822199 -200 45 -200 45 -200 45
15256950000 -0.006772114 -24.522957 -200 45 -200 45 -200 45
15506900000 0.062937513 -24.884947 -200 45 -200 45 -200 45
15756850000 -0.040574554 -25.274818 -200 45 -200 45 -200 45
16006800000 -0.0015599855 -25.73649 -200 45 -200 45 -200 45
16256750000 0.01273742 -26.044903 -200 45 -200 45 -200 45
16506700000 -0.035699904 -26.436954 -200 45 -200 45 -200 45
16756650000 0.05826271 -26.901781 -200 45 -200 45 -200 45
17006600000 0.02302867 -27.217724 -200 45 -200 45 -200 45
17256550000 -0.033026449 -27.846455 -200 45 -200 45 -200 45
17506500000 0.089906447 -28.253727 -200 45 -200 45 -200 45
17756450000 0.0098328842 -28.197952 -200 45 -200 45 -200 45
18006400000 0.0042957985 -29.096087 -200 45 -200 45 -200 45
18256350000 0.13196786 -29.723009 -200 45 -200 45 -200 45
18506300000 -0.016899835 -29.56336 -200 45 -200 45 -200 45
18756250000 -0.0055228258 -30.421841 -200 45 -200 45 -200 45
19006200000 0.079131454 -30.7323 -200 45 -200 45 -200 45
19256150000 -0.0072050504 -30.678047 -200 45 -200 45 -200 45
19506100000 0.029464044 -31.775681 -200 45 -200 45 -200 45
19756050000 0.045519304 -31.938347 -200 45 -200 45 -200 45
20006000000 -0.040702347 -32.171402 -200 45 -200 45 -200 45
20255950000 0.044198833 -33.227684 -200 45 -200 45 -200 45
20505900000 0.021427043 -32.884132 -200 45 -200 45 -200 45
20755850000 -0.011785042 -33.561256 -200 45 -200 45 -200 45
21005800000 0.075382784 -34.773479 -200 45 -200 45 -200 45
21255750000 0.014125162 -34.165783 -200 45 -200 45 -200 45
21505700000 -0.034101378 -35.002548 -200 45 -200 45 -200 45
21755650000 0.019046005 -35.551277 -200 45 -200 45 -200 45
22005600000 0.010980882 -35.155262 -200 45 -200 45 -200 45
22255550000 -0.014219153 -36.56287 -200 45 -200 45 -200 45
22505500000 0.012451106 -36.74588 -200 45 -200 45 -200 45
22755450000 -0.028897773 -36.514824 -200 45 -200 45 -200 45
23005400000 -0.035897527 -37.653633 -200 45 -200 45 -200 45
23255350000 0.020718982 -37.550156 -200 45 -200 45 -200 45
23505300000 -0.0085180532 -37.820511 -200 45 -200 45 -200 45
23755250000 -0.016873227 -38.824295 -200 45 -200 45 -200 45
24005200000 0.012937533 -38.71122 -200 45 -200 45 -200 45
24255150000 -0.052299127 -39.207142 -200 45 -200 45 -200 45
24505100000 -0.026103118 -39.751785 -200 45 -200 45 -200 45
24755050000 0.024249354 -39.669296 -200 45 -200 45 -200 45
25005000000 -0.027183292 -40.439144 -200 45 -200 45 -200 45
25254950000 0.022637334 -40.908909 -200 45 -200 45 -200 45
25504900000 -0.0022952666 -40.883377 -200 45 -200 45 -200 45
25754850000 -0.037500493 -41.836044 -200 45 -200 45 -200 45
26004800000 0.031142149 -41.943096 -200 45 -200 45 -200 45
26254750000 0.01823226 -42.329861 -200 45 -200 45 -200 45
26504700000 -0.02808496 -43.394798 -200 45 -200 45 -200 45
26754650000 0.025316251 -43.336075 -200 45 -200 45 -200 45
27004600000 -0.0048961467 -43.643589 -200 45 -200 45 -200 45
27254550000 -0.021056814 -44.263054 -200 45 -200 45 -200 45
27504500000 0.037802815 -44.324032 -200 45 -200 45 -200 45
27754450000 0.0028294015 -44.911179 -200 45 -200 45 -200 45
28004400000 0.018903311 -45.463589 -200 45 -200 45 -200 45
28254350000 0.023557059 -45.779499 -200 45 -200 45 -200 45
28504300000 -0.032555975 -46.425571 -200 45 -200 45 -200 45
28754250000 0.027796905 -46.389751 -200 45 -200 45 -200 45
29004200000 0.0064580329 -46.799503 -200 45 -200 45 -200 45
29254150000 -0.015446516 -47.617718 -200 45 -200 45 -200 45
29504100000 0.052627504 -47.825089 -200 45 -200 45 -200 45
29754050000 -0.023431685 -48.262146 -200 45 -200 45 -200 45
30004000000 -0.02848269 -48.830585 -200 45 -200 45 -200 45
30253950000 0.065919422 -49.030266 -200 45 -200 45 -200 45
30503900000 0.027318534 -49.407822 -200 45 -200 45 -200 45
30753850000 0.025551947 -50.116085 -200 45 -200 45 -200 45
31003800000 0.075971402 -50.278614 -200 45 -200 45 -200 45
31253750000 0.039254762 -50.879269 -200 45 -200 45 -200 45
31503700000 0.057339728 -51.105145 -200 45 -200 45 -200 45
31753650000 0.045062773 -51.600739 -200 45 -200 45 -200 45
32003600000 0.05359982 -52.120953 -200 45 -200 45 -200 45
32253550000 0.09924715 -52.570824 -200 45 -200 45 -200 45
32503500000 0.027288277 -53.146725 -200 45 -200 45 -200 45
32753450000 0.056728389 -53.64761 -200 45 -200 45 -200 45
33003400000 0.096695624 -53.82373 -200 45 -200 45 -200 45
33253350000 0.013586567 -54.314892 -200 45 -200 45 -200 45
33503300000 0.054753795 -54.958378 -200 45 -200 45 -200 45
33753250000 0.076317139 -55.123333 -200 45 -200 45 -200 45
34003200000 -0.0050179092 -55.680553 -200 45 -200 45 -200 45
34253150000 0.020684753 -56.034824 -200 45 -200 45 -200 45
34503100000 0.053691201 -56.503422 -200 45 -200 45 -200 45
34753050000 0.053624254 -57.028 -200 45 -200 45 -200 45
35003000000 0.093592949 -57.458523 -200 45 -200 45 -200 45
35252950000 0.058318712 -57.835892 -200 45 -200 45 -200 45
35502900000 0.052736707 -58.414738 -200 45 -200 45 -200 45
35752850000 0.057943724 -58.851376 -200 45 -200 45 -200 45
36002800000 0.023144633 -58.998211 -200 45 -200 45 -200 45
36252750000 0.052973181 -59.71291 -200 45 -200 45 -200 45
36502700000 0.087624058 -60.312988 -200 45 -200 45 -200 45
36752650000 -0.014851269 -60.306747 -200 45 -200 45 -200 45
37002600000 0.066926777 -60.803623 -200 45 -200 45 -200 45
37252550000 0.077875838 -61.271969 -200 45 -200 45 -200 45
37502500000 0.043189481 -61.855183 -200 45 -200 45 -200 45
37752450000 0.040839758 -62.45594 -200 45 -200 45 -200 45
38002400000 0.036513489 -62.975296 -200 45 -200 45 -200 45
38252350000 -0.0075632664 -63.098331 -200 45 -200 45 -200 45
38502300000 0.0065603903 -64.015831 -200 45 -200 45 -200 45
38752250000 0.045797132 -64.097839 -200 45 -200 45 -200 45
39002200000 0.0055745905 -64.565468 -200 45 -200 45 -200 45
39252150000 0.023653366 -65.218971 -200 45 -200 45 -200 45
39502100000 0.046165977 -65.233521 -200 45 -200 45 -200 45
39752050000 0.0013064145 -66.121178 -200 45 -200 45 -200 45
40002000000 0.021373056 -66.221558 -200 45 -200 45 -200 45
40251950000 0.062958881 -66.132156 -200 45 -200 45 -200 45
40501900000 0.02607662 -67.305885 -200 45 -200 45 -200 45
40751850000 0.025672536 -67.845535 -200 45 -200 45 -200 45
41001800000 0.073142044 -67.976166 -200 45 -200 45 -200 45
41251750000 0.021761876 -68.733734 -200 45 -200 45 -200 45
41501700000 0.026437256 -69.058647 -200 45 -200 45 -200 45
41751650000 0.044726018 -69.331612 -200 45 -200 45 -200 45
42001600000 -0.0041263192 -69.974731 -200 45 -200 45 -200 45
42251550000 0.036526855 -70.530853 -200 45 -200 45 -200 45
42501500000 0.0088114971 -71.103577 -200 45 -200 45 -200 45
42751450000 -0.0048193657 -71.586998 -200 45 -200 45 -200 45
43001400000 -0.022390915 -72.031715 -200 45 -200 45 -200 45
43251350000 -0.014472977 -72.252579 -200 45 -200 45 -200 45
43501300000 -0.008714335 -72.72113 -200 45 -200 45 -200 45
43751250000 0.025038941 -73.50042 -200 45 -200 45 -200 45
44001200000 -0.025183115 -73.893257 -200 45 -200 45 -200 45
44251150000 -0.014053747 -74.333702 -200 45 -200 45 -200 45
44501100000 -0.0034427466 -74.769485 -200 45 -200 45 -200 45
44751050000 -0.053072196 -75.492683 -200 45 -200 45 -200 45
45001000000 -0.034352552 -75.924698 -200 45 -200 45 -200 45
45250950000 -0.055919211 -76.225838 -200 45 -200 45 -200 45
45500900000 -0.088142388 -76.734535 -200 45 -200 45 -200 45
45750850000 -0.071622722 -77.28212 -200 45 -200 45 -200 45
46000800000 -0.074230403 -77.724388 -200 45 -200 45 -200 45
46250750000 -0.083722793 -78.281502 -200 45 -200 45 -200 45
46500700000 -0.1008651 -78.72818 -200 45 -200 45 -200 45
46750650000 -0.18365496 -79.537979 -200 45 -200 45 -200 45
47000600000 -0.1385874 -79.799736 -200 45 -200 45 -200 45
47250550000 -0.13638975 -79.930168 -200 45 -200 45 -200 45
47500500000 -0.19960397 -80.439568 -200 45 -200 45 -200 45
47750450000 -0.19779922 -80.681488 -200 45 -200 45 -200 45
48000400000 -0.15307824 -81.12619 -200 45 -200 45 -200 45
48250350000 -0.26998469 -81.431755 -200 45 -200 45 -200 45
48500300000 -0.26218259 -81.619843 -200 45 -200 45 -200 45
48750250000 -0.11398613 -81.79335 -200 45 -200 45 -200 45
49000200000 -0.30032748 -81.825584 -200 45 -200 45 -200 45
49250150000 -0.15504333 -82.625183 -200 45 -200 45 -200 45
49500100000 -0.076134421 -83.24765 -200 45 -200 45 -200 45
49750050000 -0.20338134 -83.999794 -200 45 -200 45 -200 45
50000000000 -0.072380476 -83.868225 -200 45 -200 45 -200 45
