!Agilent Technologies,N5227A,US51270434,A.10.00.00
!Agilent N5227A: A.10.00.00
!Date: Friday, February 13, 2026 14:20:38
!Correction: S11(Full 1 Port(1)) 
!S21(Off) 
!S12(Off) 
!S22(Off) 
!S2P File: Measurements: S11, S21, S12, S22:
# Hz S  dB   R 50
10000000 0.0051018037 -0.022329822 -200 45 -200 45 -200 45
259950000 -0.0036620174 -2.0651381 -200 45 -200 45 -200 45
509900000 -0.0095306002 -4.030839 -200 45 -200 45 -200 45
759850000 -0.0078973183 -5.9375129 -200 45 -200 45 -200 45
1009800000 -0.014889324 -7.9116926 -200 45 -200 45 -200 45
1259750000 -0.028097361 -9.8911886 -200 45 -200 45 -200 45
1509700000 -0.036812454 -11.849999 -200 45 -200 45 -200 45
1759650000 -0.049899325 -13.75288 -200 45 -200 45 -200 45
2009600000 -0.05052508 -15.785363 -200 45 -200 45 -200 45
2259550000 -0.065803669 -17.645329 -200 45 -200 45 -200 45
2509500000 -0.086471282 -19.598122 -200 45 -200 45 -200 45
2759450000 -0.090152778 -21.583422 -200 45 -200 45 -200 45
3009400000 -0.11845842 -23.410852 -200 45 -200 45 -200 45
3259350000 -0.12012333 -25.419533 -200 45 -200 45 -200 45
3509300000 -0.1299144 -27.329391 -200 45 -200 45 -200 45
3759250000 -0.15552542 -29.094694 -200 45 -200 45 -200 45
4009200000 -0.15614036 -31.212591 -200 45 -200 45 -200 45
4259150000 -0.17873424 -33.004593 -200 45 -200 45 -200 45
4509100000 -0.20952743 -34.902344 -200 45 -200 45 -200 45
4759050000 -0.20331587 -37.046623 -200 45 -200 45 -200 45
5009000000 -0.23799317 -38.554905 -200 45 -200 45 -200 45
5258950000 -0.26189828 -40.643517 -200 45 -200 45 -200 45
5508900000 -0.26605111 -42.76487 -200 45 -200 45 -200 45
5758850000 -0.30867288 -44.155876 -200 45 -200 45 -200 45
6008800000 -0.33083975 -46.5364 -200 45 -200 45 -200 45
6258750000 -0.3297562 -48.359814 -200 45 -200 45 -200 45
6508700000 -0.37437204 -49.776737 -200 45 -200 45 -200 45
6758650000 -0.38172448 -52.278301 -200 45 -200 45 -200 45
7008600000 -0.39223871 -53.733578 -200 45 -200 45 -200 45
7258550000 -0.44024166 -55.59251 -200 45 -200 45 -200 45
7508500000 -0.46048295 -58.00597 -200 45 -200 45 -200 45
7758450000 -0.46382257 -59.111088 -200 45 -200 45 -200 45
8008400000 -0.51035428 -61.441795 -200 45 -200 45 -200 45
8258350000 -0.50336677 -63.460941 -200 45 -200 45 -200 45
8508300000 -0.52175653 -64.536285 -200 45 -200 45 -200 45
8758250000 -0.5798378 -67.418221 -200 45 -200 45 -200 45
9008200000 -0.54862666 -68.775681 -200 45 -200 45 -200 45
9258150000 -0.57857066 -70.124832 -200 45 -200 45 -200 45
9508100000 -0.66492397 -73.135818 -200 45 -200 45 -200 45
9758050000 -0.59791285 -74.17659 -200 45 -200 45 -200 45
10008000000 -0.68236262 -76.076477 -200 45 -200 45 -200 45
10257950000 -0.73829859 -78.736794 -200 45 -200 45 -200 45
10507900000 -0.65047318 -79.553841 -200 45 -200 45 -200 45
10757850000 -0.81100553 -82.050804 -200 45 -200 45 -200 45
11007800000 -0.76564217 -83.977188 -200 45 -200 45 -200 45
11257750000 -0.72700393 -85.063553 -200 45 -200 45 -200 45
11507700000 -0.90340954 -87.937584 -200 45 -200 45 -200 45
11757650000 -0.81107271 -89.365288 -200 45 -200 45 -200 45
12007600000 -0.84596705 -91.048508 -200 45 -200 45 -200 45
12257550000 -1.0003368 -93.580673 -200 45 -200 45 -200 45
12507500000 -0.78987986 -95.274307 -200 45 -200 45 -200 45
12757450000 -0.98704362 -96.729507 -200 45 -200 45 -200 45
13007400000 -1.0345567 -99.274071 -200 45 -200 45 -200 45
13257350000 -0.88764912 -100.48412 -200 45 -200 45 -200 45
13507300000 -1.1768293 -102.54904 -200 45 -200 45 -200 45
13757250000 -0.85859746 -96.330956 -200 45 -200 45 -200 45
14007200000 -0.88515335 -98.774376 -200 45 -200 45 -200 45
14257150000 -1.0951692 -101.99374 -200 45 -200 45 -200 45
14507100000 -0.97042465 -104.68958 -200 45 -200 45 -200 45
14757050000 -1.1003871 -107.52755 -200 45 -200 45 -200 45
15007000000 -1.2882067 -110.92299 -200 45 -200 45 -200 45
15256950000 -1.1276934 -113.56511 -200 45 -200 45 -200 45
15506900000 -1.4038242 -117.49375 -200 45 -200 45 -200 45
15756850000 -1.4224399 -120.06519 -200 45 -200 45 -200 45
16006800000 -1.32819 -120.77903 -200 45 -200 45 -200 45
16256750000 -1.5869904 -122.83681 -200 45 -200 45 -200 45
16506700000 -1.3768235 -124.79636 -200 45 -200 45 -200 45
16756650000 -1.4734858 -125.73182 -200 45 -200 45 -200 45
17006600000 -1.6397443 -128.27805 -200 45 -200 45 -200 45
17256550000 -1.3098918 -129.88858 -200 45 -200 45 -200 45
17506500000 -1.5994282 -131.17673 -200 45 -200 45 -200 45
17756450000 -1.7658869 -133.85973 -200 45 -200 45 -200 45
18006400000 -1.4999937 -135.19048 -200 45 -200 45 -200 45
18256350000 -1.8032526 -136.45451 -200 45 -200 45 -200 45
18506300000 -1.7544763 -139.39355 -200 45 -200 45 -200 45
18756250000 -1.6431948 -140.50932 -200 45 -200 45 -200 45
19006200000 -2.0047443 -142.27443 -200 45 -200 45 -200 45
19256150000 -1.7936603 -144.84694 -200 45 -200 45 -200 45
19506100000 -1.9148177 -145.20656 -200 45 -200 45 -200 45
19756050000 -2.0219634 -147.99457 -200 45 -200 45 -200 45
20006000000 -1.6633297 -150.55035 -200 45 -200 45 -200 45
20255950000 -2.0719533 -150.56833 -200 45 -200 45 -200 45
20505900000 -2.1220367 -154.44624 -200 45 -200 45 -200 45
20755850000 -1.743109 -155.99178 -200 45 -200 45 -200 45
21005800000 -2.1996629 -155.24529 -200 45 -200 45 -200 45
21255750000 -2.2107494 -159.3607 -200 45 -200 45 -200 45
21505700000 -2.0010917 -160.5849 -200 45 -200 45 -200 45
21755650000 -2.4357119 -160.9431 -200 45 -200 45 -200 45
22005600000 -2.3483067 -164.32521 -200 45 -200 45 -200 45
22255550000 -2.3483202 -164.10928 -200 45 -200 45 -200 45
22505500000 -2.5533245 -166.56429 -200 45 -200 45 -200 45
22755450000 -2.3177738 -169.53517 -200 45 -200 45 -200 45
23005400000 -2.5197821 -168.98225 -200 45 -200 45 -200 45
23255350000 -2.6679554 -173.06729 -200 45 -200 45 -200 45
23505300000 -2.4531555 -174.22499 -200 45 -200 45 -200 45
23755250000 -2.7419503 -173.28413 -200 45 -200 45 -200 45
24005200000 -2.7191136 -178.47778 -200 45 -200 45 -200 45
24255150000 -2.4720476 -178.69647 -200 45 -200 45 -200 45
24505100000 -2.8760631 -178.8231 -200 45 -200 45 -200 45
24755050000 -2.891953 176.6404 -200 45 -200 45 -200 45
25005000000 -2.7292526 177.68002 -200 45 -200 45 -200 45
25254950000 -2.9619746 176.59438 -200 45 -200 45 -200 45
25504900000 -2.8308296 173.57939 -200 45 -200 45 -200 45
25754850000 -2.8712556 173.65616 -200 45 -200 45 -200 45
26004800000 -3.0911021 170.21284 -200 45 -200 45 -200 45
26254750000 -2.8922379 169.34526 -200 45 -200 45 -200 45
26504700000 -3.0996706 169.56631 -200 45 -200 45 -200 45
26754650000 -3.1586564 165.02412 -200 45 -200 45 -200 45
27004600000 -2.8987699 164.95621 -200 45 -200 45 -200 45
27254550000 -3.1896267 164.43314 -200 45 -200 45 -200 45
27504500000 -3.2392654 160.4071 -200 45 -200 45 -200 45
27754450000 -3.0698035 161.35599 -200 45 -200 45 -200 45
28004400000 -3.2980735 159.86165 -200 45 -200 45 -200 45
28254350000 -3.1547079 156.8831 -200 45 -200 45 -200 45
28504300000 -3.1025586 157.56783 -200 45 -200 45 -200 45
28754250000 -3.3012283 154.79585 -200 45 -200 45 -200 45
29004200000 -3.1453331 153.46057 -200 45 -200 45 -200 45
29254150000 -3.2678239 153.39743 -200 45 -200 45 -200 45
29504100000 -3.3278894 150.02354 -200 45 -200 45 -200 45
29754050000 -3.1081669 150.19376 -200 45 -200 45 -200 45
30004000000 -3.4818501 148.39511 -200 45 -200 45 -200 45
30253950000 -3.4684286 144.30983 -200 45 -200 45 -200 45
30503900000 -3.2227519 145.8293 -200 45 -200 45 -200 45
30753850000 -3.5644336 144.0874 -200 45 -200 45 -200 45
31003800000 -3.4186985 141.45566 -200 45 -200 45 -200 45
31253750000 -3.2087414 142.00555 -200 45 -200 45 -200 45
31503700000 -3.4892662 139.07327 -200 45 -200 45 -200 45
31753650000 -3.3329759 137.94003 -200 45 -200 45 -200 45
32003600000 -3.417294 137.73979 -200 45 -200 45 -200 45
32253550000 -3.4866643 134.834 -200 45 -200 45 -200 45
32503500000 -3.2267926 135.07149 -200 45 -200 45 -200 45
32753450000 -3.4338496 133.34402 -200 45 -200 45 -200 45
33003400000 -3.2820268 130.60722 -200 45 -200 45 -200 45
33253350000 -3.2567739 131.68951 -200 45 -200 45 -200 45
33503300000 -3.7107422 129.02242 -200 45 -200 45 -200 45
33753250000 -3.3348479 126.76765 -200 45 -200 45 -200 45
34003200000 -3.3362417 128.53389 -200 45 -200 45 -200 45
34253150000 -3.8053811 125.09448 -200 45 -200 45 -200 45
34503100000 -3.3269811 123.29887 -200 45 -200 45 -200 45
34753050000 -3.431581 123.54887 -200 45 -200 45 -200 45
35003000000 -3.6751504 120.43125 -200 45 -200 45 -200 45
35252950000 -3.2247162 120.59609 -200 45 -200 45 -200 45
35502900000 -3.662972 119.61008 -200 45 -200 45 -200 45
35752850000 -3.5608287 115.00834 -200 45 -200 45 -200 45
36002800000 -3.1881979 116.7205 -200 45 -200 45 -200 45
36252750000 -3.8379896 116.28408 -200 45 -200 45 -200 45
36502700000 -3.5760722 112.47488 -200 45 -200 45 -200 45
36752650000 -3.1742692 113.67443 -200 45 -200 45 -200 45
37002600000 -3.6303942 112.48806 -200 45 -200 45 -200 45
37252550000 -3.3213096 109.65812 -200 45 -200 45 -200 45
37502500000 -3.3759711 111.08665 -200 45 -200 45 -200 45
37752450000 -3.7283864 109.3035 -200 45 -200 45 -200 45
38002400000 -3.2319796 107.01302 -200 45 -200 45 -200 45
38252350000 -3.446146 108.99783 -200 45 -200 45 -200 45
38502300000 -3.634572 106.42467 -200 45 -200 45 -200 45
38752250000 -3.1640539 103.2841 -200 45 -200 45 -200 45
39002200000 -3.318758 105.13931 -200 45 -200 45 -200 45
39252150000 -3.3852434 102.17087 -200 45 -200 45 -200 45
39502100000 -3.1340938 100.42559 -200 45 -200 45 -200 45
39752050000 -3.1447895 102.38881 -200 45 -200 45 -200 45
40002000000 -3.2077768 95.659439 -200 45 -200 45 -200 45
40251950000 -3.0192804 94.208237 -200 45 -200 45 -200 45
40501900000 -3.0144088 97.319817 -200 45 -200 45 -200 45
40751850000 -3.1279829 95.052292 -200 45 -200 45 -200 45
41001800000 -3.014039 93.504776 -200 45 -200 45 -200 45
41251750000 -2.9735646 92.819305 -200 45 -200 45 -200 45
41501700000 -3.0436251 90.556107 -200 45 -200 45 -200 45
41751650000 -2.96311 89.185852 -200 45 -200 45 -200 45
42001600000 -3.0143239 88.397675 -200 45 -200 45 -200 45
42251550000 -3.0510283 87.167389 -200 45 -200 45 -200 45
42501500000 -2.9145448 85.951775 -200 45 -200 45 -200 45
42751450000 -2.9659054 84.912582 -200 45 -200 45 -200 45
43001400000 -3.0056367 83.70784 -200 45 -200 45 -200 45
43251350000 -2.9429171 82.386887 -200 45 -200 45 -200 45
43501300000 -2.9835384 81.751526 -200 45 -200 45 -200 45
43751250000 -2.9882534 80.515404 -200 45 -200 45 -200 45
44001200000 -2.9239111 78.894173 -200 45 -200 45 -200 45
44251150000 -2.9857619 78.692986 -200 45 -200 45 -200 45
44501100000 -2.9786909 77.568161 -200 45 -200 45 -200 45
44751050000 -2.8960791 76.019997 -200 45 -200 45 -200 45
45001000000 -2.946758 75.115173 -200 45 -200 45 -200 45
45250950000 -2.9672551 74.316681 -200 45 -200 45 -200 45
45500900000 -2.9139845 73.542297 -200 45 -200 45 -200 45
45750850000 -2.7876306 72.247276 -200 45 -200 45 -200 45
46000800000 -2.7683108 71.33712 -200 45 -200 45 -200 45
46250750000 -2.8489621 69.949158 -200 45 -200 45 -200 45
46500700000 -2.7735512 68.390297 -200 45 -200 45 -200 45
46750650000 -2.7748911 68.652786 -200 45 -200 45 -200 45
47000600000 -2.8222387 67.328888 -200 45 -200 45 -200 45
47250550000 -2.7365966 65.204559 -200 45 -200 45 -200 45
47500500000 -2.8918097 65.08152 -200 45 -200 45 -200 45
47750450000 -2.8896964 64.704025 -200 45 -200 45 -200 45
48000400000 -2.6940703 63.294872 -200 45 -200 45 -200 45
48250350000 -2.8982067 62.076782 -200 45 -200 45 -200 45
48500300000 -2.8431823 62.197582 -200 45 -200 45 -200 45
48750250000 -2.6715069 61.759724 -200 45 -200 45 -200 45
49000200000 -2.8633528 57.852528 -200 45 -200 45 -200 45
49250150000 -2.8097432 58.918941 -200 45 -200 45 -200 45
49500100000 -2.6212819 58.768002 -200 45 -200 45 -200 45
49750050000 -2.7596347 54.902512 -200 45 -200 45 -200 45
50000000000 -2.9216242 56.613419 -200 45 -200 45 -200 45
