!Agilent Technologies,N5227A,US51270434,A.10.00.00
!Agilent N5227A: A.10.00.00
!Date: Friday, February 13, 2026 14:20:58
!Correction: S11(Full 1 Port(1)) 
!S21(Off) 
!S12(Off) 
!S22(Off) 
!S2P File: Measurements: S11, S21, S12, S22:
# Hz S  dB   R 50
10000000 -0.0030376406 -0.047138251 -200 45 -200 45 -200 45
259950000 -0.0039850892 -1.6143975 -200 45 -200 45 -200 45
509900000 -0.0098207789 -3.1437292 -200 45 -200 45 -200 45
759850000 -0.0060773813 -4.6475954 -200 45 -200 45 -200 45
1009800000 -0.01335305 -6.166369 -200 45 -200 45 -200 45
1259750000 -0.020071682 -7.7120161 -200 45 -200 45 -200 45
1509700000 -0.025063837 -9.2474566 -200 45 -200 45 -200 45
1759650000 -0.03380394 -10.7226 -200 45 -200 45 -200 45
2009600000 -0.034328811 -12.298017 -200 45 -200 45 -200 45
2259550000 -0.046304248 -13.718114 -200 45 -200 45 -200 45
2509500000 -0.060151219 -15.254807 -200 45 -200 45 -200 45
2759450000 -0.056637079 -16.846291 -200 45 -200 45 -200 45
3009400000 -0.080284283 -18.235998 -200 45 -200 45 -200 45
3259350000 -0.07721103 -19.798584 -200 45 -200 45 -200 45
3509300000 -0.07672134 -21.295834 -200 45 -200 45 -200 45
3759250000 -0.096907273 -22.653168 -200 45 -200 45 -200 45
4009200000 -0.091328263 -24.332979 -200 45 -200 45 -200 45
4259150000 -0.10356132 -25.741922 -200 45 -200 45 -200 45
4509100000 -0.12494663 -27.201189 -200 45 -200 45 -200 45
4759050000 -0.10893431 -28.942074 -200 45 -200 45 -200 45
5009000000 -0.1388078 -30.04269 -200 45 -200 45 -200 45
5258950000 -0.1538526 -31.695641 -200 45 -200 45 -200 45
5508900000 -0.13896486 -33.46637 -200 45 -200 45 -200 45
5758850000 -0.17252541 -34.444122 -200 45 -200 45 -200 45
6008800000 -0.18464054 -36.383423 -200 45 -200 45 -200 45
6258750000 -0.17180383 -37.92012 -200 45 -200 45 -200 45
6508700000 -0.20632911 -38.868382 -200 45 -200 45 -200 45
6758650000 -0.20614742 -41.046917 -200 45 -200 45 -200 45
7008600000 -0.20066978 -42.15202 -200 45 -200 45 -200 45
7258550000 -0.2433107 -43.497704 -200 45 -200 45 -200 45
7508500000 -0.25060564 -45.662239 -200 45 -200 45 -200 45
7758450000 -0.23723878 -46.418472 -200 45 -200 45 -200 45
8008400000 -0.27553216 -48.293224 -200 45 -200 45 -200 45
8258350000 -0.2605783 -50.111588 -200 45 -200 45 -200 45
8508300000 -0.26115412 -50.682663 -200 45 -200 45 -200 45
8758250000 -0.31519437 -53.168091 -200 45 -200 45 -200 45
9008200000 -0.27335599 -54.397175 -200 45 -200 45 -200 45
9258150000 -0.2655358 -55.12669 -200 45 -200 45 -200 45
9508100000 -0.35797846 -57.879337 -200 45 -200 45 -200 45
9758050000 -0.27778479 -58.764355 -200 45 -200 45 -200 45
10008000000 -0.3202906 -59.98885 -200 45 -200 45 -200 45
10257950000 -0.4106032 -62.592556 -200 45 -200 45 -200 45
10507900000 -0.2745395 -63.068184 -200 45 -200 45 -200 45
10757850000 -0.41628462 -65.022507 -200 45 -200 45 -200 45
11007800000 -0.40155947 -66.973114 -200 45 -200 45 -200 45
11257750000 -0.29784891 -67.574333 -200 45 -200 45 -200 45
11507700000 -0.48852825 -70.021538 -200 45 -200 45 -200 45
11757650000 -0.41797128 -71.497192 -200 45 -200 45 -200 45
12007600000 -0.36163887 -72.670006 -200 45 -200 45 -200 45
12257550000 -0.56868136 -74.856606 -200 45 -200 45 -200 45
12507500000 -0.34086725 -76.431587 -200 45 -200 45 -200 45
12757450000 -0.46229163 -77.39119 -200 45 -200 45 -200 45
13007400000 -0.58944571 -79.73455 -200 45 -200 45 -200 45
13257350000 -0.38040996 -80.814293 -200 45 -200 45 -200 45
13507300000 -0.63552839 -82.379272 -200 45 -200 45 -200 45
13757250000 -0.49705747 -80.527939 -200 45 -200 45 -200 45
14007200000 -0.4392181 -82.143082 -200 45 -200 45 -200 45
14257150000 -0.64260197 -84.395416 -200 45 -200 45 -200 45
14507100000 -0.51843214 -86.40728 -200 45 -200 45 -200 45
14757050000 -0.52380311 -88.292007 -200 45 -200 45 -200 45
15007000000 -0.7766664 -90.55217 -200 45 -200 45 -200 45
15256950000 -0.57101482 -92.69976 -200 45 -200 45 -200 45
15506900000 -0.7194013 -95.013817 -200 45 -200 45 -200 45
15756850000 -0.85171694 -97.479057 -200 45 -200 45 -200 45
16006800000 -0.69738555 -98.578461 -200 45 -200 45 -200 45
16256750000 -0.94463468 -100.13987 -200 45 -200 45 -200 45
16506700000 -0.79441661 -102.03242 -200 45 -200 45 -200 45
16756650000 -0.75274163 -102.95949 -200 45 -200 45 -200 45
17006600000 -0.99695706 -105.00184 -200 45 -200 45 -200 45
17256550000 -0.70073777 -106.87292 -200 45 -200 45 -200 45
17506500000 -0.83194745 -107.88454 -200 45 -200 45 -200 45
17756450000 -1.1302694 -109.91035 -200 45 -200 45 -200 45
18006400000 -0.81204188 -111.74974 -200 45 -200 45 -200 45
18256350000 -1.0129185 -112.70779 -200 45 -200 45 -200 45
18506300000 -1.1304009 -115.09906 -200 45 -200 45 -200 45
18756250000 -0.93297064 -116.75584 -200 45 -200 45 -200 45
19006200000 -1.2625449 -117.75745 -200 45 -200 45 -200 45
19256150000 -1.1512976 -120.09221 -200 45 -200 45 -200 45
19506100000 -1.136921 -121.03242 -200 45 -200 45 -200 45
19756050000 -1.3303313 -122.94684 -200 45 -200 45 -200 45
20006000000 -1.0156393 -125.89028 -200 45 -200 45 -200 45
20255950000 -1.2877163 -125.99563 -200 45 -200 45 -200 45
20505900000 -1.4725604 -128.65875 -200 45 -200 45 -200 45
20755850000 -1.0397711 -131.31052 -200 45 -200 45 -200 45
21005800000 -1.378919 -130.53131 -200 45 -200 45 -200 45
21255750000 -1.5360739 -133.60323 -200 45 -200 45 -200 45
21505700000 -1.2872318 -135.89146 -200 45 -200 45 -200 45
21755650000 -1.6704401 -135.42757 -200 45 -200 45 -200 45
22005600000 -1.6695144 -138.54277 -200 45 -200 45 -200 45
22255550000 -1.5842226 -139.22723 -200 45 -200 45 -200 45
22505500000 -1.8238595 -140.51663 -200 45 -200 45 -200 45
22755450000 -1.6547279 -144.08064 -200 45 -200 45 -200 45
23005400000 -1.775593 -143.63614 -200 45 -200 45 -200 45
23255350000 -1.9992012 -146.44809 -200 45 -200 45 -200 45
23505300000 -1.7861412 -148.76498 -200 45 -200 45 -200 45
23755250000 -1.9676204 -147.57259 -200 45 -200 45 -200 45
24005200000 -2.071821 -152.16449 -200 45 -200 45 -200 45
24255150000 -1.826865 -153.67232 -200 45 -200 45 -200 45
24505100000 -2.150878 -152.7478 -200 45 -200 45 -200 45
24755050000 -2.2738557 -157.15321 -200 45 -200 45 -200 45
25005000000 -2.0703456 -157.14883 -200 45 -200 45 -200 45
25254950000 -2.2548566 -157.41212 -200 45 -200 45 -200 45
25504900000 -2.218745 -160.96939 -200 45 -200 45 -200 45
25754850000 -2.2193718 -160.91954 -200 45 -200 45 -200 45
26004800000 -2.4790981 -163.41121 -200 45 -200 45 -200 45
26254750000 -2.3115699 -165.47412 -200 45 -200 45 -200 45
26504700000 -2.4109321 -164.74225 -200 45 -200 45 -200 45
26754650000 -2.5911696 -168.91951 -200 45 -200 45 -200 45
27004600000 -2.3493862 -170.17531 -200 45 -200 45 -200 45
27254550000 -2.5813141 -169.79124 -200 45 -200 45 -200 45
27504500000 -2.7438333 -173.84853 -200 45 -200 45 -200 45
27754450000 -2.5345585 -173.70857 -200 45 -200 45 -200 45
28004400000 -2.7300494 -174.52429 -200 45 -200 45 -200 45
28254350000 -2.6919525 -178.18059 -200 45 -200 45 -200 45
28504300000 -2.5802116 -177.702 -200 45 -200 45 -200 45
28754250000 -2.822839 -179.76353 -200 45 -200 45 -200 45
29004200000 -2.7217965 178.13512 -200 45 -200 45 -200 45
29254150000 -2.761687 178.51202 -200 45 -200 45 -200 45
29504100000 -2.9043107 175.07385 -200 45 -200 45 -200 45
29754050000 -2.6855021 174.4135 -200 45 -200 45 -200 45
30004000000 -2.9671922 173.6329 -200 45 -200 45 -200 45
30253950000 -3.1386993 169.27679 -200 45 -200 45 -200 45
30503900000 -2.8285153 170.03784 -200 45 -200 45 -200 45
30753850000 -3.1098282 169.0769 -200 45 -200 45 -200 45
31003800000 -3.1000643 165.88715 -200 45 -200 45 -200 45
31253750000 -2.864954 166.09508 -200 45 -200 45 -200 45
31503700000 -3.1878681 163.52916 -200 45 -200 45 -200 45
31753650000 -3.0627291 161.69165 -200 45 -200 45 -200 45
32003600000 -3.0717313 161.86275 -200 45 -200 45 -200 45
32253550000 -3.2224309 158.62097 -200 45 -200 45 -200 45
32503500000 -2.9422114 158.24931 -200 45 -200 45 -200 45
32753450000 -3.1621871 157.13686 -200 45 -200 45 -200 45
33003400000 -3.1281199 153.70428 -200 45 -200 45 -200 45
33253350000 -2.9793193 154.61502 -200 45 -200 45 -200 45
33503300000 -3.4694662 152.94844 -200 45 -200 45 -200 45
33753250000 -3.2371919 149.4752 -200 45 -200 45 -200 45
34003200000 -3.0460603 151.03078 -200 45 -200 45 -200 45
34253150000 -3.6043482 148.48141 -200 45 -200 45 -200 45
34503100000 -3.2598948 145.57732 -200 45 -200 45 -200 45
34753050000 -3.2300897 146.11462 -200 45 -200 45 -200 45
35003000000 -3.5761278 142.99673 -200 45 -200 45 -200 45
35252950000 -3.1090188 142.28717 -200 45 -200 45 -200 45
35502900000 -3.5042741 141.81662 -200 45 -200 45 -200 45
35752850000 -3.6653841 136.65784 -200 45 -200 45 -200 45
36002800000 -3.1071842 137.61902 -200 45 -200 45 -200 45
36252750000 -3.7236986 138.67534 -200 45 -200 45 -200 45
36502700000 -3.742162 133.89003 -200 45 -200 45 -200 45
36752650000 -3.0896275 134.19569 -200 45 -200 45 -200 45
37002600000 -3.5765343 134.034 -200 45 -200 45 -200 45
37252550000 -3.420671 130.33937 -200 45 -200 45 -200 45
37502500000 -3.2828131 131.44772 -200 45 -200 45 -200 45
37752450000 -3.7364986 130.70813 -200 45 -200 45 -200 45
38002400000 -3.3235292 127.21775 -200 45 -200 45 -200 45
38252350000 -3.3477855 129.17044 -200 45 -200 45 -200 45
38502300000 -3.6992161 127.30126 -200 45 -200 45 -200 45
38752250000 -3.2802904 123.17226 -200 45 -200 45 -200 45
39002200000 -3.2958314 125.24403 -200 45 -200 45 -200 45
39252150000 -3.5237367 123.02288 -200 45 -200 45 -200 45
39502100000 -3.2187202 119.92482 -200 45 -200 45 -200 45
39752050000 -3.1243062 122.20199 -200 45 -200 45 -200 45
40002000000 -3.3549292 115.83277 -200 45 -200 45 -200 45
40251950000 -3.1732221 113.18776 -200 45 -200 45 -200 45
40501900000 -3.0861623 116.1834 -200 45 -200 45 -200 45
40751850000 -3.2083914 114.35368 -200 45 -200 45 -200 45
41001800000 -3.1315219 112.04817 -200 45 -200 45 -200 45
41251750000 -3.0711741 111.20478 -200 45 -200 45 -200 45
41501700000 -3.1350479 108.93987 -200 45 -200 45 -200 45
41751650000 -3.09058 107.2493 -200 45 -200 45 -200 45
42001600000 -3.1003582 106.37404 -200 45 -200 45 -200 45
42251550000 -3.1552296 105.0937 -200 45 -200 45 -200 45
42501500000 -3.0603187 103.54533 -200 45 -200 45 -200 45
42751450000 -3.1085622 102.348 -200 45 -200 45 -200 45
43001400000 -3.1253409 101.11866 -200 45 -200 45 -200 45
43251350000 -3.1177106 99.44178 -200 45 -200 45 -200 45
43501300000 -3.1098375 98.552704 -200 45 -200 45 -200 45
43751250000 -3.1499984 97.304573 -200 45 -200 45 -200 45
44001200000 -3.0847998 95.587387 -200 45 -200 45 -200 45
44251150000 -3.121614 94.986832 -200 45 -200 45 -200 45
44501100000 -3.1091013 93.81588 -200 45 -200 45 -200 45
44751050000 -3.0251789 92.054344 -200 45 -200 45 -200 45
45001000000 -3.1143191 90.952873 -200 45 -200 45 -200 45
45250950000 -3.144412 90.086029 -200 45 -200 45 -200 45
45500900000 -3.071007 89.075684 -200 45 -200 45 -200 45
45750850000 -2.9857225 87.506111 -200 45 -200 45 -200 45
46000800000 -2.943692 86.406265 -200 45 -200 45 -200 45
46250750000 -3.0496242 84.97171 -200 45 -200 45 -200 45
46500700000 -3.0317204 83.30365 -200 45 -200 45 -200 45
46750650000 -2.9685266 83.175827 -200 45 -200 45 -200 45
47000600000 -3.0187125 81.933762 -200 45 -200 45 -200 45
47250550000 -2.982363 79.247169 -200 45 -200 45 -200 45
47500500000 -3.1416225 79.372589 -200 45 -200 45 -200 45
47750450000 -3.089674 78.914604 -200 45 -200 45 -200 45
48000400000 -2.9270253 77.062645 -200 45 -200 45 -200 45
48250350000 -3.131005 76.063972 -200 45 -200 45 -200 45
48500300000 -3.0484216 76.010567 -200 45 -200 45 -200 45
48750250000 -2.8509994 75.318756 -200 45 -200 45 -200 45
49000200000 -3.1305799 71.777252 -200 45 -200 45 -200 45
49250150000 -3.03407 72.414734 -200 45 -200 45 -200 45
49500100000 -2.837045 71.768188 -200 45 -200 45 -200 45
49750050000 -3.0601902 68.072708 -200 45 -200 45 -200 45
50000000000 -3.0564051 70.048759 -200 45 -200 45 -200 45
