!Agilent Technologies,N5227A,US51270434,A.10.00.00
!Agilent N5227A: A.10.00.00
!Date: Friday, February 13, 2026 14:21:17
!Correction: S11(Full 1 Port(1)) 
!S21(Off) 
!S12(Off) 
!S22(Off) 
!S2P File: Measurements: S11, S21, S12, S22:
# Hz S  dB   R 50
10000000 -0.006958955 0.15049064 -200 45 -200 45 -200 45
259950000 -0.0059695486 -1.3909855 -200 45 -200 45 -200 45
509900000 -0.0076617096 -2.7699986 -200 45 -200 45 -200 45
759850000 -0.0043819556 -4.0952802 -200 45 -200 45 -200 45
1009800000 -0.011530426 -5.4270434 -200 45 -200 45 -200 45
1259750000 -0.019689681 -6.7930164 -200 45 -200 45 -200 45
1509700000 -0.017475476 -8.1302872 -200 45 -200 45 -200 45
1759650000 -0.031357005 -9.4475117 -200 45 -200 45 -200 45
2009600000 -0.026238566 -10.838343 -200 45 -200 45 -200 45
2259550000 -0.037467085 -12.107938 -200 45 -200 45 -200 45
2509500000 -0.051854186 -13.4366 -200 45 -200 45 -200 45
2759450000 -0.046683792 -14.852576 -200 45 -200 45 -200 45
3009400000 -0.069253847 -16.041239 -200 45 -200 45 -200 45
3259350000 -0.064800225 -17.460043 -200 45 -200 45 -200 45
3509300000 -0.060667645 -18.780365 -200 45 -200 45 -200 45
3759250000 -0.083133608 -19.950434 -200 45 -200 45 -200 45
4009200000 -0.073766418 -21.460524 -200 45 -200 45 -200 45
4259150000 -0.082115069 -22.689592 -200 45 -200 45 -200 45
4509100000 -0.099639833 -23.949007 -200 45 -200 45 -200 45
4759050000 -0.080705434 -25.522306 -200 45 -200 45 -200 45
5009000000 -0.10383818 -26.463394 -200 45 -200 45 -200 45
5258950000 -0.11768736 -27.916775 -200 45 -200 45 -200 45
5508900000 -0.10120512 -29.537477 -200 45 -200 45 -200 45
5758850000 -0.12926093 -30.330702 -200 45 -200 45 -200 45
6008800000 -0.13998054 -32.08823 -200 45 -200 45 -200 45
6258750000 -0.1208713 -33.469028 -200 45 -200 45 -200 45
6508700000 -0.14667627 -34.222176 -200 45 -200 45 -200 45
6758650000 -0.15008496 -36.205315 -200 45 -200 45 -200 45
7008600000 -0.14084238 -37.229359 -200 45 -200 45 -200 45
7258550000 -0.17499965 -38.333519 -200 45 -200 45 -200 45
7508500000 -0.18316612 -40.375217 -200 45 -200 45 -200 45
7758450000 -0.16121422 -40.95076 -200 45 -200 45 -200 45
8008400000 -0.19531555 -42.585262 -200 45 -200 45 -200 45
8258350000 -0.18173516 -44.336895 -200 45 -200 45 -200 45
8508300000 -0.17058852 -44.69849 -200 45 -200 45 -200 45
8758250000 -0.22701274 -46.974201 -200 45 -200 45 -200 45
9008200000 -0.18272141 -48.141624 -200 45 -200 45 -200 45
9258150000 -0.15623644 -48.56797 -200 45 -200 45 -200 45
9508100000 -0.25595018 -51.189957 -200 45 -200 45 -200 45
9758050000 -0.16823001 -51.978806 -200 45 -200 45 -200 45
10008000000 -0.19322561 -52.900845 -200 45 -200 45 -200 45
10257950000 -0.29323733 -55.448391 -200 45 -200 45 -200 45
10507900000 -0.13923764 -55.737286 -200 45 -200 45 -200 45
10757850000 -0.2709344 -57.451401 -200 45 -200 45 -200 45
11007800000 -0.27565238 -59.386967 -200 45 -200 45 -200 45
11257750000 -0.14044492 -59.755428 -200 45 -200 45 -200 45
11507700000 -0.32782683 -62.002266 -200 45 -200 45 -200 45
11757650000 -0.27807239 -63.452396 -200 45 -200 45 -200 45
12007600000 -0.17819597 -64.356232 -200 45 -200 45 -200 45
12257550000 -0.40736929 -66.368332 -200 45 -200 45 -200 45
12507500000 -0.17964248 -67.897446 -200 45 -200 45 -200 45
12757450000 -0.25791863 -68.624687 -200 45 -200 45 -200 45
13007400000 -0.41978332 -70.838631 -200 45 -200 45 -200 45
13257350000 -0.1861075 -71.778664 -200 45 -200 45 -200 45
13507300000 -0.41696453 -73.143135 -200 45 -200 45 -200 45
13757250000 -0.38725302 -74.717102 -200 45 -200 45 -200 45
14007200000 -0.28879842 -75.856201 -200 45 -200 45 -200 45
14257150000 -0.49102828 -77.717499 -200 45 -200 45 -200 45
14507100000 -0.36544672 -79.23291 -200 45 -200 45 -200 45
14757050000 -0.31638515 -80.444931 -200 45 -200 45 -200 45
15007000000 -0.58594382 -81.983459 -200 45 -200 45 -200 45
15256950000 -0.36254752 -83.649002 -200 45 -200 45 -200 45
15506900000 -0.43694666 -84.703087 -200 45 -200 45 -200 45
15756850000 -0.61188692 -86.635841 -200 45 -200 45 -200 45
16006800000 -0.43525064 -87.895706 -200 45 -200 45 -200 45
16256750000 -0.66341561 -89.228905 -200 45 -200 45 -200 45
16506700000 -0.54695809 -91.046036 -200 45 -200 45 -200 45
16756650000 -0.44125786 -91.938469 -200 45 -200 45 -200 45
17006600000 -0.70870972 -93.713936 -200 45 -200 45 -200 45
17256550000 -0.43736196 -95.635788 -200 45 -200 45 -200 45
17506500000 -0.48630255 -96.52404 -200 45 -200 45 -200 45
17756450000 -0.8272413 -98.146149 -200 45 -200 45 -200 45
18006400000 -0.50662941 -100.18008 -200 45 -200 45 -200 45
18256350000 -0.63015574 -101.00412 -200 45 -200 45 -200 45
18506300000 -0.83006465 -102.99702 -200 45 -200 45 -200 45
18756250000 -0.60418355 -104.85986 -200 45 -200 45 -200 45
19006200000 -0.88993454 -105.54396 -200 45 -200 45 -200 45
19256150000 -0.84377617 -107.62184 -200 45 -200 45 -200 45
19506100000 -0.76394093 -108.86932 -200 45 -200 45 -200 45
19756050000 -0.97952455 -110.31291 -200 45 -200 45 -200 45
20006000000 -0.69890958 -113.31834 -200 45 -200 45 -200 45
20255950000 -0.88600671 -113.54007 -200 45 -200 45 -200 45
20505900000 -1.1297257 -115.45223 -200 45 -200 45 -200 45
20755850000 -0.68753892 -118.5396 -200 45 -200 45 -200 45
21005800000 -0.94616216 -117.85508 -200 45 -200 45 -200 45
21255750000 -1.1733513 -120.2136 -200 45 -200 45 -200 45
21505700000 -0.91923922 -122.93675 -200 45 -200 45 -200 45
21755650000 -1.2578715 -122.20608 -200 45 -200 45 -200 45
22005600000 -1.2919986 -124.92401 -200 45 -200 45 -200 45
22255550000 -1.1703075 -126.16224 -200 45 -200 45 -200 45
22505500000 -1.4052804 -126.84319 -200 45 -200 45 -200 45
22755450000 -1.2834152 -130.41331 -200 45 -200 45 -200 45
23005400000 -1.3582094 -130.25737 -200 45 -200 45 -200 45
23255350000 -1.5896832 -132.17224 -200 45 -200 45 -200 45
23505300000 -1.3983656 -134.96193 -200 45 -200 45 -200 45
23755250000 -1.5189059 -133.84189 -200 45 -200 45 -200 45
24005200000 -1.6658033 -137.79214 -200 45 -200 45 -200 45
24255150000 -1.4411902 -139.927 -200 45 -200 45 -200 45
24505100000 -1.7061509 -138.6264 -200 45 -200 45 -200 45
24755050000 -1.8716847 -142.61815 -200 45 -200 45 -200 45
25005000000 -1.6615609 -143.24799 -200 45 -200 45 -200 45
25254950000 -1.8031431 -143.04912 -200 45 -200 45 -200 45
25504900000 -1.8220445 -146.66322 -200 45 -200 45 -200 45
25754850000 -1.7931577 -146.83931 -200 45 -200 45 -200 45
26004800000 -2.0395408 -148.71167 -200 45 -200 45 -200 45
26254750000 -1.9090451 -151.23065 -200 45 -200 45 -200 45
26504700000 -1.9555031 -150.43083 -200 45 -200 45 -200 45
26754650000 -2.1738379 -154.01442 -200 45 -200 45 -200 45
27004600000 -1.9770459 -155.94339 -200 45 -200 45 -200 45
27254550000 -2.1443031 -155.14415 -200 45 -200 45 -200 45
27504500000 -2.3550582 -158.93492 -200 45 -200 45 -200 45
27754450000 -2.1596954 -159.18445 -200 45 -200 45 -200 45
28004400000 -2.3049092 -159.66896 -200 45 -200 45 -200 45
28254350000 -2.3338039 -163.58847 -200 45 -200 45 -200 45
28504300000 -2.208216 -163.29297 -200 45 -200 45 -200 45
28754250000 -2.4413569 -164.84859 -200 45 -200 45 -200 45
29004200000 -2.3756068 -167.4077 -200 45 -200 45 -200 45
29254150000 -2.3655882 -166.77283 -200 45 -200 45 -200 45
29504100000 -2.5513449 -169.92563 -200 45 -200 45 -200 45
29754050000 -2.3536043 -171.2681 -200 45 -200 45 -200 45
30004000000 -2.5596595 -171.40363 -200 45 -200 45 -200 45
30253950000 -2.7970719 -175.59114 -200 45 -200 45 -200 45
30503900000 -2.4933207 -175.41603 -200 45 -200 45 -200 45
30753850000 -2.7187347 -175.9341 -200 45 -200 45 -200 45
31003800000 -2.7721601 -179.17178 -200 45 -200 45 -200 45
31253750000 -2.5152099 -179.45004 -200 45 -200 45 -200 45
31503700000 -2.8466823 178.39378 -200 45 -200 45 -200 45
31753650000 -2.8078887 176.40468 -200 45 -200 45 -200 45
32003600000 -2.7472563 176.72188 -200 45 -200 45 -200 45
32253550000 -2.9314039 173.4128 -200 45 -200 45 -200 45
32503500000 -2.6746759 172.51414 -200 45 -200 45 -200 45
32753450000 -2.8579624 171.96449 -200 45 -200 45 -200 45
33003400000 -2.9084201 168.2299 -200 45 -200 45 -200 45
33253350000 -2.6862264 168.7567 -200 45 -200 45 -200 45
33503300000 -3.1697478 167.98502 -200 45 -200 45 -200 45
33753250000 -3.0441365 163.91777 -200 45 -200 45 -200 45
34003200000 -2.7722025 165.08696 -200 45 -200 45 -200 45
34253150000 -3.3206608 163.23166 -200 45 -200 45 -200 45
34503100000 -3.0840435 159.94121 -200 45 -200 45 -200 45
34753050000 -2.9922917 160.43892 -200 45 -200 45 -200 45
35003000000 -3.3843591 157.33231 -200 45 -200 45 -200 45
35252950000 -2.9593549 156.2933 -200 45 -200 45 -200 45
35502900000 -3.2982678 156.33972 -200 45 -200 45 -200 45
35752850000 -3.5992367 150.83752 -200 45 -200 45 -200 45
36002800000 -2.9745712 151.27745 -200 45 -200 45 -200 45
36252750000 -3.4993465 153.08948 -200 45 -200 45 -200 45
36502700000 -3.7368162 147.9808 -200 45 -200 45 -200 45
36752650000 -2.9672182 147.69771 -200 45 -200 45 -200 45
37002600000 -3.404232 148.32422 -200 45 -200 45 -200 45
37252550000 -3.3814585 144.33879 -200 45 -200 45 -200 45
37502500000 -3.1428373 144.87955 -200 45 -200 45 -200 45
37752450000 -3.5996797 144.68567 -200 45 -200 45 -200 45
38002400000 -3.2878995 140.8255 -200 45 -200 45 -200 45
38252350000 -3.2322381 142.33498 -200 45 -200 45 -200 45
38502300000 -3.6141043 141.33325 -200 45 -200 45 -200 45
38752250000 -3.2335005 136.79442 -200 45 -200 45 -200 45
39002200000 -3.2312274 138.58582 -200 45 -200 45 -200 45
39252150000 -3.454891 136.75537 -200 45 -200 45 -200 45
39502100000 -3.1681025 133.36856 -200 45 -200 45 -200 45
39752050000 -3.0655947 135.81606 -200 45 -200 45 -200 45
40002000000 -3.3234954 130.18692 -200 45 -200 45 -200 45
40251950000 -3.1730769 126.61411 -200 45 -200 45 -200 45
40501900000 -3.0541847 128.97673 -200 45 -200 45 -200 45
40751850000 -3.1761813 127.4739 -200 45 -200 45 -200 45
41001800000 -3.1212242 124.88952 -200 45 -200 45 -200 45
41251750000 -3.0333135 123.95926 -200 45 -200 45 -200 45
41501700000 -3.1156056 121.65864 -200 45 -200 45 -200 45
41751650000 -3.1218839 119.90932 -200 45 -200 45 -200 45
42001600000 -3.0933647 119.13136 -200 45 -200 45 -200 45
42251550000 -3.1428845 117.68163 -200 45 -200 45 -200 45
42501500000 -3.1077008 115.82588 -200 45 -200 45 -200 45
42751450000 -3.0863583 114.46816 -200 45 -200 45 -200 45
43001400000 -3.1546364 113.22235 -200 45 -200 45 -200 45
43251350000 -3.1520236 111.54045 -200 45 -200 45 -200 45
43501300000 -3.1089969 110.48682 -200 45 -200 45 -200 45
43751250000 -3.1890438 109.18857 -200 45 -200 45 -200 45
44001200000 -3.1307747 107.14384 -200 45 -200 45 -200 45
44251150000 -3.1406655 106.5715 -200 45 -200 45 -200 45
44501100000 -3.1582406 105.25975 -200 45 -200 45 -200 45
44751050000 -3.0789831 103.11969 -200 45 -200 45 -200 45
45001000000 -3.1702318 102.0869 -200 45 -200 45 -200 45
45250950000 -3.2013664 101.40929 -200 45 -200 45 -200 45
45500900000 -3.1460857 100.10585 -200 45 -200 45 -200 45
45750850000 -3.0724485 98.499504 -200 45 -200 45 -200 45
46000800000 -3.0552528 97.167473 -200 45 -200 45 -200 45
46250750000 -3.1411831 95.717148 -200 45 -200 45 -200 45
46500700000 -3.1301713 93.925026 -200 45 -200 45 -200 45
46750650000 -3.0304105 93.638062 -200 45 -200 45 -200 45
47000600000 -3.0925329 92.411911 -200 45 -200 45 -200 45
47250550000 -3.0866737 89.413437 -200 45 -200 45 -200 45
47500500000 -3.2591841 89.686745 -200 45 -200 45 -200 45
47750450000 -3.2152934 89.125374 -200 45 -200 45 -200 45
48000400000 -3.0644209 87.06498 -200 45 -200 45 -200 45
48250350000 -3.2496929 86.203484 -200 45 -200 45 -200 45
48500300000 -3.1548378 86.030968 -200 45 -200 45 -200 45
48750250000 -2.9669566 84.653267 -200 45 -200 45 -200 45
49000200000 -3.2851505 81.449104 -200 45 -200 45 -200 45
49250150000 -3.1426139 82.140305 -200 45 -200 45 -200 45
49500100000 -2.9557359 81.302681 -200 45 -200 45 -200 45
49750050000 -3.2051089 78.227379 -200 45 -200 45 -200 45
50000000000 -3.2296269 79.646919 -200 45 -200 45 -200 45
