!Agilent Technologies,N5227A,US51270434,A.10.00.00
!Agilent N5227A: A.10.00.00
!Date: Friday, February 13, 2026 14:15:15
!Correction: S11(Full 1 Port(1)) 
!S21(Off) 
!S12(Off) 
!S22(Off) 
!S2P File: Measurements: S11, S21, S12, S22:
# Hz S  dB   R 50
10000000 0.0058278926 -0.042569052 -200 45 -200 45 -200 45
259950000 -0.0032606637 -1.973954 -200 45 -200 45 -200 45
509900000 -0.0051897923 -3.8631256 -200 45 -200 45 -200 45
759850000 -0.0092381462 -5.7282925 -200 45 -200 45 -200 45
1009800000 -0.016304864 -7.5916271 -200 45 -200 45 -200 45
1259750000 -0.024367802 -9.4671917 -200 45 -200 45 -200 45
1509700000 -0.029731572 -11.358429 -200 45 -200 45 -200 45
1759650000 -0.040409181 -13.194935 -200 45 -200 45 -200 45
2009600000 -0.044767745 -15.083984 -200 45 -200 45 -200 45
2259550000 -0.063281603 -16.916517 -200 45 -200 45 -200 45
2509500000 -0.071333759 -18.772646 -200 45 -200 45 -200 45
2759450000 -0.074002258 -20.649164 -200 45 -200 45 -200 45
3009400000 -0.092711844 -22.450623 -200 45 -200 45 -200 45
3259350000 -0.09717755 -24.324921 -200 45 -200 45 -200 45
3509300000 -0.10561468 -26.210039 -200 45 -200 45 -200 45
3759250000 -0.12903158 -27.989708 -200 45 -200 45 -200 45
4009200000 -0.13189621 -29.922157 -200 45 -200 45 -200 45
4259150000 -0.14802429 -31.718819 -200 45 -200 45 -200 45
4509100000 -0.17565478 -33.564175 -200 45 -200 45 -200 45
4759050000 -0.17985155 -35.522518 -200 45 -200 45 -200 45
5009000000 -0.20793465 -37.151398 -200 45 -200 45 -200 45
5258950000 -0.22849061 -39.077789 -200 45 -200 45 -200 45
5508900000 -0.23290825 -41.057781 -200 45 -200 45 -200 45
5758850000 -0.2714631 -42.636879 -200 45 -200 45 -200 45
6008800000 -0.28471732 -44.720039 -200 45 -200 45 -200 45
6258750000 -0.29352313 -46.542995 -200 45 -200 45 -200 45
6508700000 -0.32886532 -48.071007 -200 45 -200 45 -200 45
6758650000 -0.33837256 -50.24688 -200 45 -200 45 -200 45
7008600000 -0.3600837 -51.8265 -200 45 -200 45 -200 45
7258550000 -0.39284566 -53.600903 -200 45 -200 45 -200 45
7508500000 -0.4047291 -55.770058 -200 45 -200 45 -200 45
7758450000 -0.42088544 -57.137875 -200 45 -200 45 -200 45
8008400000 -0.45052931 -59.235374 -200 45 -200 45 -200 45
8258350000 -0.45739478 -61.186275 -200 45 -200 45 -200 45
8508300000 -0.47477216 -62.48175 -200 45 -200 45 -200 45
8758250000 -0.50896901 -64.954575 -200 45 -200 45 -200 45
9008200000 -0.51216936 -66.479202 -200 45 -200 45 -200 45
9258150000 -0.53034484 -67.946999 -200 45 -200 45 -200 45
9508100000 -0.58619416 -70.520599 -200 45 -200 45 -200 45
9758050000 -0.56539249 -71.827141 -200 45 -200 45 -200 45
10008000000 -0.60969794 -73.634201 -200 45 -200 45 -200 45
10257950000 -0.66440809 -76.025566 -200 45 -200 45 -200 45
10507900000 -0.6201452 -77.136002 -200 45 -200 45 -200 45
10757850000 -0.71079332 -79.338387 -200 45 -200 45 -200 45
11007800000 -0.70722014 -81.246925 -200 45 -200 45 -200 45
11257750000 -0.6832999 -82.559013 -200 45 -200 45 -200 45
11507700000 -0.79794091 -85.035225 -200 45 -200 45 -200 45
11757650000 -0.76513273 -86.584656 -200 45 -200 45 -200 45
12007600000 -0.77170861 -88.358574 -200 45 -200 45 -200 45
12257550000 -0.88699287 -90.594963 -200 45 -200 45 -200 45
12507500000 -0.76861995 -92.340141 -200 45 -200 45 -200 45
12757450000 -0.88858747 -93.936951 -200 45 -200 45 -200 45
13007400000 -0.94492275 -96.167435 -200 45 -200 45 -200 45
13257350000 -0.85122418 -97.584854 -200 45 -200 45 -200 45
13507300000 -1.0334373 -99.599045 -200 45 -200 45 -200 45
13757250000 -0.78603899 -93.075836 -200 45 -200 45 -200 45
14007200000 -0.80994558 -95.668045 -200 45 -200 45 -200 45
14257150000 -0.95650226 -98.696724 -200 45 -200 45 -200 45
14507100000 -0.90944266 -101.44579 -200 45 -200 45 -200 45
14757050000 -0.99048364 -104.47939 -200 45 -200 45 -200 45
15007000000 -1.1391747 -107.64902 -200 45 -200 45 -200 45
15256950000 -1.0691313 -110.54604 -200 45 -200 45 -200 45
15506900000 -1.2693037 -114.78165 -200 45 -200 45 -200 45
15756850000 -1.3053153 -116.96966 -200 45 -200 45 -200 45
16006800000 -1.2421759 -117.91498 -200 45 -200 45 -200 45
16256750000 -1.4087054 -119.87345 -200 45 -200 45 -200 45
16506700000 -1.2968014 -121.71242 -200 45 -200 45 -200 45
16756650000 -1.3590726 -123.09729 -200 45 -200 45 -200 45
17006600000 -1.4882022 -125.32548 -200 45 -200 45 -200 45
17256550000 -1.2876545 -126.97524 -200 45 -200 45 -200 45
17506500000 -1.4663846 -128.52406 -200 45 -200 45 -200 45
17756450000 -1.5933594 -130.82347 -200 45 -200 45 -200 45
18006400000 -1.435519 -132.40916 -200 45 -200 45 -200 45
18256350000 -1.6469133 -133.99017 -200 45 -200 45 -200 45
18506300000 -1.6328243 -136.34366 -200 45 -200 45 -200 45
18756250000 -1.5719405 -137.78893 -200 45 -200 45 -200 45
19006200000 -1.8068975 -139.50308 -200 45 -200 45 -200 45
19256150000 -1.6819712 -141.86366 -200 45 -200 45 -200 45
19506100000 -1.7751969 -142.83488 -200 45 -200 45 -200 45
19756050000 -1.8632829 -145.15157 -200 45 -200 45 -200 45
20006000000 -1.650751 -147.59088 -200 45 -200 45 -200 45
20255950000 -1.913939 -148.14455 -200 45 -200 45 -200 45
20505900000 -1.9723787 -151.21313 -200 45 -200 45 -200 45
20755850000 -1.7296069 -153.15703 -200 45 -200 45 -200 45
21005800000 -2.0261993 -153.17136 -200 45 -200 45 -200 45
21255750000 -2.074012 -156.36224 -200 45 -200 45 -200 45
21505700000 -1.9461998 -157.91545 -200 45 -200 45 -200 45
21755650000 -2.2143216 -158.60393 -200 45 -200 45 -200 45
22005600000 -2.1985216 -161.47626 -200 45 -200 45 -200 45
22255550000 -2.1914451 -162.07819 -200 45 -200 45 -200 45
22505500000 -2.3447659 -164.09898 -200 45 -200 45 -200 45
22755450000 -2.2291486 -166.81104 -200 45 -200 45 -200 45
23005400000 -2.3316584 -166.99448 -200 45 -200 45 -200 45
23255350000 -2.4643352 -170.08925 -200 45 -200 45 -200 45
23505300000 -2.342314 -171.66884 -200 45 -200 45 -200 45
23755250000 -2.4972086 -171.61665 -200 45 -200 45 -200 45
24005200000 -2.5549605 -175.41621 -200 45 -200 45 -200 45
24255150000 -2.3934579 -176.34492 -200 45 -200 45 -200 45
24505100000 -2.6236045 -176.8071 -200 45 -200 45 -200 45
24755050000 -2.6787012 179.71759 -200 45 -200 45 -200 45
25005000000 -2.5571103 179.48557 -200 45 -200 45 -200 45
25254950000 -2.7071643 178.27879 -200 45 -200 45 -200 45
25504900000 -2.6662729 175.67722 -200 45 -200 45 -200 45
25754850000 -2.6629016 175.15926 -200 45 -200 45 -200 45
26004800000 -2.8247473 172.53177 -200 45 -200 45 -200 45
26254750000 -2.7219453 171.10388 -200 45 -200 45 -200 45
26504700000 -2.8324749 170.63741 -200 45 -200 45 -200 45
26754650000 -2.9178963 167.36482 -200 45 -200 45 -200 45
27004600000 -2.7558439 166.54016 -200 45 -200 45 -200 45
27254550000 -2.9283209 165.70505 -200 45 -200 45 -200 45
27504500000 -3.0014703 162.6734 -200 45 -200 45 -200 45
27754450000 -2.8765373 162.46603 -200 45 -200 45 -200 45
28004400000 -3.0256147 160.95605 -200 45 -200 45 -200 45
28254350000 -2.9647579 158.63518 -200 45 -200 45 -200 45
28504300000 -2.9246752 158.43452 -200 45 -200 45 -200 45
28754250000 -3.0729079 156.19331 -200 45 -200 45 -200 45
29004200000 -2.9750159 154.64861 -200 45 -200 45 -200 45
29254150000 -3.0278041 154.17358 -200 45 -200 45 -200 45
29504100000 -3.0864558 151.50806 -200 45 -200 45 -200 45
29754050000 -2.9635355 150.70386 -200 45 -200 45 -200 45
30004000000 -3.1657038 149.19263 -200 45 -200 45 -200 45
30253950000 -3.1879265 146.3744 -200 45 -200 45 -200 45
30503900000 -3.0435379 146.23476 -200 45 -200 45 -200 45
30753850000 -3.2418888 144.73038 -200 45 -200 45 -200 45
31003800000 -3.1843746 142.60724 -200 45 -200 45 -200 45
31253750000 -3.0686722 142.40134 -200 45 -200 45 -200 45
31503700000 -3.2635138 140.23412 -200 45 -200 45 -200 45
31753650000 -3.1298048 138.89767 -200 45 -200 45 -200 45
32003600000 -3.1684384 138.16635 -200 45 -200 45 -200 45
32253550000 -3.2657192 135.81721 -200 45 -200 45 -200 45
32503500000 -3.0769901 135.28333 -200 45 -200 45 -200 45
32753450000 -3.2205327 133.76794 -200 45 -200 45 -200 45
33003400000 -3.1716537 131.32532 -200 45 -200 45 -200 45
33253350000 -3.1070616 131.24727 -200 45 -200 45 -200 45
33503300000 -3.3667381 129.44762 -200 45 -200 45 -200 45
33753250000 -3.1772249 127.47514 -200 45 -200 45 -200 45
34003200000 -3.2017937 127.73712 -200 45 -200 45 -200 45
34253150000 -3.4492795 125.3599 -200 45 -200 45 -200 45
34503100000 -3.2191257 123.76063 -200 45 -200 45 -200 45
34753050000 -3.2974057 123.56867 -200 45 -200 45 -200 45
35003000000 -3.429863 121.17857 -200 45 -200 45 -200 45
35252950000 -3.155566 120.7327 -200 45 -200 45 -200 45
35502900000 -3.4418793 119.72263 -200 45 -200 45 -200 45
35752850000 -3.3913028 116.92414 -200 45 -200 45 -200 45
36002800000 -3.1656184 117.09904 -200 45 -200 45 -200 45
36252750000 -3.5010362 116.40657 -200 45 -200 45 -200 45
36502700000 -3.3769975 113.82133 -200 45 -200 45 -200 45
36752650000 -3.1341972 113.69331 -200 45 -200 45 -200 45
37002600000 -3.360455 112.6076 -200 45 -200 45 -200 45
37252550000 -3.181813 110.65354 -200 45 -200 45 -200 45
37502500000 -3.2005332 110.96835 -200 45 -200 45 -200 45
37752450000 -3.3367448 109.4348 -200 45 -200 45 -200 45
38002400000 -3.0816803 107.55413 -200 45 -200 45 -200 45
38252350000 -3.212492 108.01935 -200 45 -200 45 -200 45
38502300000 -3.2488356 106.08818 -200 45 -200 45 -200 45
38752250000 -2.9935536 103.76912 -200 45 -200 45 -200 45
39002200000 -3.0948155 104.35374 -200 45 -200 45 -200 45
39252150000 -3.1230724 102.27985 -200 45 -200 45 -200 45
39502100000 -2.9444194 100.58526 -200 45 -200 45 -200 45
39752050000 -2.95839 101.24014 -200 45 -200 45 -200 45
40002000000 -2.9936049 94.998749 -200 45 -200 45 -200 45
40251950000 -2.8871238 94.028435 -200 45 -200 45 -200 45
40501900000 -2.8616426 96.84388 -200 45 -200 45 -200 45
40751850000 -2.8984838 94.921768 -200 45 -200 45 -200 45
41001800000 -2.8512089 93.401131 -200 45 -200 45 -200 45
41251750000 -2.8659372 92.291321 -200 45 -200 45 -200 45
41501700000 -2.8844411 90.653984 -200 45 -200 45 -200 45
41751650000 -2.8253808 89.265175 -200 45 -200 45 -200 45
42001600000 -2.8375216 88.288383 -200 45 -200 45 -200 45
42251550000 -2.8763978 87.002808 -200 45 -200 45 -200 45
42501500000 -2.7777586 85.985474 -200 45 -200 45 -200 45
42751450000 -2.8243034 84.727249 -200 45 -200 45 -200 45
43001400000 -2.8340051 83.761765 -200 45 -200 45 -200 45
43251350000 -2.8198893 82.400986 -200 45 -200 45 -200 45
43501300000 -2.8166249 81.542931 -200 45 -200 45 -200 45
43751250000 -2.8463619 80.559242 -200 45 -200 45 -200 45
44001200000 -2.7877545 79.094131 -200 45 -200 45 -200 45
44251150000 -2.8087265 78.197105 -200 45 -200 45 -200 45
44501100000 -2.7903116 77.290329 -200 45 -200 45 -200 45
44751050000 -2.7585888 76.216911 -200 45 -200 45 -200 45
45001000000 -2.7672899 75.120834 -200 45 -200 45 -200 45
45250950000 -2.7856154 74.25135 -200 45 -200 45 -200 45
45500900000 -2.7542939 73.386871 -200 45 -200 45 -200 45
45750850000 -2.7256875 72.380394 -200 45 -200 45 -200 45
46000800000 -2.6716471 71.459816 -200 45 -200 45 -200 45
46250750000 -2.7689734 70.08725 -200 45 -200 45 -200 45
46500700000 -2.6959798 69.025787 -200 45 -200 45 -200 45
46750650000 -2.6452699 68.619545 -200 45 -200 45 -200 45
47000600000 -2.6920316 67.30983 -200 45 -200 45 -200 45
47250550000 -2.697042 65.900764 -200 45 -200 45 -200 45
47500500000 -2.6691642 65.604393 -200 45 -200 45 -200 45
47750450000 -2.6829116 64.145699 -200 45 -200 45 -200 45
48000400000 -2.6653731 63.492748 -200 45 -200 45 -200 45
48250350000 -2.616158 62.972298 -200 45 -200 45 -200 45
48500300000 -2.5709736 61.196548 -200 45 -200 45 -200 45
48750250000 -2.6429305 60.836327 -200 45 -200 45 -200 45
49000200000 -2.6669464 60.036228 -200 45 -200 45 -200 45
49250150000 -2.4697149 58.282238 -200 45 -200 45 -200 45
49500100000 -2.6823978 58.389259 -200 45 -200 45 -200 45
49750050000 -2.6011055 57.515144 -200 45 -200 45 -200 45
50000000000 -2.283303 55.812035 -200 45 -200 45 -200 45
