!Agilent Technologies,N5227A,US51270434,A.10.00.00
!Agilent N5227A: A.10.00.00
!Date: Friday, February 13, 2026 14:16:54
!Correction: S11(Full 1 Port(1)) 
!S21(Off) 
!S12(Off) 
!S22(Off) 
!S2P File: Measurements: S11, S21, S12, S22:
# Hz S  dB   R 50
10000000 -0.0049740868 0.0049103089 -200 45 -200 45 -200 45
259950000 -0.003759058 -1.3096532 -200 45 -200 45 -200 45
509900000 -0.0030243397 -2.6359308 -200 45 -200 45 -200 45
759850000 -0.002953463 -3.8997021 -200 45 -200 45 -200 45
1009800000 -0.0076574567 -5.195785 -200 45 -200 45 -200 45
1259750000 -0.01703183 -6.4861212 -200 45 -200 45 -200 45
1509700000 -0.019585991 -7.7564106 -200 45 -200 45 -200 45
1759650000 -0.024196438 -8.995636 -200 45 -200 45 -200 45
2009600000 -0.02583872 -10.307781 -200 45 -200 45 -200 45
2259550000 -0.03231075 -11.534476 -200 45 -200 45 -200 45
2509500000 -0.040577207 -12.794695 -200 45 -200 45 -200 45
2759450000 -0.03642315 -14.094082 -200 45 -200 45 -200 45
3009400000 -0.043955218 -15.314024 -200 45 -200 45 -200 45
3259350000 -0.047901995 -16.602154 -200 45 -200 45 -200 45
3509300000 -0.04009543 -17.909155 -200 45 -200 45 -200 45
3759250000 -0.059111588 -19.104286 -200 45 -200 45 -200 45
4009200000 -0.052562341 -20.461208 -200 45 -200 45 -200 45
4259150000 -0.062865503 -21.684305 -200 45 -200 45 -200 45
4509100000 -0.074456334 -22.922213 -200 45 -200 45 -200 45
4759050000 -0.065925889 -24.341825 -200 45 -200 45 -200 45
5009000000 -0.083644472 -25.374594 -200 45 -200 45 -200 45
5258950000 -0.092508323 -26.731359 -200 45 -200 45 -200 45
5508900000 -0.080983795 -28.18648 -200 45 -200 45 -200 45
5758850000 -0.1078705 -29.179937 -200 45 -200 45 -200 45
6008800000 -0.11240878 -30.669943 -200 45 -200 45 -200 45
6258750000 -0.1010232 -31.984779 -200 45 -200 45 -200 45
6508700000 -0.12682362 -32.926186 -200 45 -200 45 -200 45
6758650000 -0.12142338 -34.588127 -200 45 -200 45 -200 45
7008600000 -0.12636009 -35.699799 -200 45 -200 45 -200 45
7258550000 -0.14337057 -36.785316 -200 45 -200 45 -200 45
7508500000 -0.14947106 -38.538128 -200 45 -200 45 -200 45
7758450000 -0.1438607 -39.3675 -200 45 -200 45 -200 45
8008400000 -0.16867347 -40.820141 -200 45 -200 45 -200 45
8258350000 -0.1584269 -42.38813 -200 45 -200 45 -200 45
8508300000 -0.16289754 -43.032089 -200 45 -200 45 -200 45
8758250000 -0.18661034 -44.930016 -200 45 -200 45 -200 45
9008200000 -0.17103022 -46.11805 -200 45 -200 45 -200 45
9258150000 -0.15892926 -46.778107 -200 45 -200 45 -200 45
9508100000 -0.21054776 -48.928883 -200 45 -200 45 -200 45
9758050000 -0.1731672 -49.877113 -200 45 -200 45 -200 45
10008000000 -0.18512262 -50.843105 -200 45 -200 45 -200 45
10257950000 -0.24604754 -52.994495 -200 45 -200 45 -200 45
10507900000 -0.15570825 -53.55621 -200 45 -200 45 -200 45
10757850000 -0.23412177 -55.07515 -200 45 -200 45 -200 45
11007800000 -0.2512072 -56.87418 -200 45 -200 45 -200 45
11257750000 -0.16302715 -57.458351 -200 45 -200 45 -200 45
11507700000 -0.27701119 -59.352642 -200 45 -200 45 -200 45
11757650000 -0.26004377 -60.764183 -200 45 -200 45 -200 45
12007600000 -0.17568928 -61.786091 -200 45 -200 45 -200 45
12257550000 -0.3352519 -63.541382 -200 45 -200 45 -200 45
12507500000 -0.20189206 -65.036842 -200 45 -200 45 -200 45
12757450000 -0.24084999 -65.895554 -200 45 -200 45 -200 45
13007400000 -0.36403546 -67.745483 -200 45 -200 45 -200 45
13257350000 -0.20704585 -68.82814 -200 45 -200 45 -200 45
13507300000 -0.34985712 -70.197258 -200 45 -200 45 -200 45
13757250000 -0.3543559 -71.630753 -200 45 -200 45 -200 45
14007200000 -0.28106481 -72.842751 -200 45 -200 45 -200 45
14257150000 -0.40840486 -74.56089 -200 45 -200 45 -200 45
14507100000 -0.34978712 -75.986427 -200 45 -200 45 -200 45
14757050000 -0.29259375 -77.305878 -200 45 -200 45 -200 45
15007000000 -0.48095888 -78.692062 -200 45 -200 45 -200 45
15256950000 -0.35842869 -80.285873 -200 45 -200 45 -200 45
15506900000 -0.38809887 -81.518227 -200 45 -200 45 -200 45
15756850000 -0.52233922 -83.091934 -200 45 -200 45 -200 45
16006800000 -0.40363577 -84.48658 -200 45 -200 45 -200 45
16256750000 -0.544936 -85.813416 -200 45 -200 45 -200 45
16506700000 -0.50306171 -87.411263 -200 45 -200 45 -200 45
16756650000 -0.41498366 -88.617691 -200 45 -200 45 -200 45
17006600000 -0.59828556 -90.219383 -200 45 -200 45 -200 45
17256550000 -0.44414213 -91.941315 -200 45 -200 45 -200 45
17506500000 -0.43767485 -93.118851 -200 45 -200 45 -200 45
17756450000 -0.68334895 -94.451569 -200 45 -200 45 -200 45
18006400000 -0.49707091 -96.414322 -200 45 -200 45 -200 45
18256350000 -0.55137753 -97.51075 -200 45 -200 45 -200 45
18506300000 -0.71192342 -99.075737 -200 45 -200 45 -200 45
18756250000 -0.57061005 -100.96371 -200 45 -200 45 -200 45
19006200000 -0.73872024 -101.93974 -200 45 -200 45 -200 45
19256150000 -0.74189001 -103.72125 -200 45 -200 45 -200 45
19506100000 -0.6992017 -105.33688 -200 45 -200 45 -200 45
19756050000 -0.83871472 -106.54395 -200 45 -200 45 -200 45
20006000000 -0.68581527 -108.93494 -200 45 -200 45 -200 45
20255950000 -0.79221731 -109.81023 -200 45 -200 45 -200 45
20505900000 -0.95742607 -111.27548 -200 45 -200 45 -200 45
20755850000 -0.70338261 -114.05363 -200 45 -200 45 -200 45
21005800000 -0.86339831 -114.25122 -200 45 -200 45 -200 45
21255750000 -1.0244979 -115.89345 -200 45 -200 45 -200 45
21505700000 -0.88951093 -118.47149 -200 45 -200 45 -200 45
21755650000 -1.0782163 -118.4817 -200 45 -200 45 -200 45
22005600000 -1.1329107 -120.59595 -200 45 -200 45 -200 45
22255550000 -1.0763556 -122.21501 -200 45 -200 45 -200 45
22505500000 -1.2177936 -122.97713 -200 45 -200 45 -200 45
22755450000 -1.1800467 -125.79621 -200 45 -200 45 -200 45
23005400000 -1.2159142 -126.41222 -200 45 -200 45 -200 45
23255350000 -1.355127 -127.93661 -200 45 -200 45 -200 45
23505300000 -1.2789179 -130.41603 -200 45 -200 45 -200 45
23755250000 -1.3426863 -130.31653 -200 45 -200 45 -200 45
24005200000 -1.4694804 -133.12393 -200 45 -200 45 -200 45
24255150000 -1.3582842 -135.20599 -200 45 -200 45 -200 45
24505100000 -1.4809126 -134.88115 -200 45 -200 45 -200 45
24755050000 -1.6120433 -137.83813 -200 45 -200 45 -200 45
25005000000 -1.508345 -139.05424 -200 45 -200 45 -200 45
25254950000 -1.5839851 -139.49062 -200 45 -200 45 -200 45
25504900000 -1.6356332 -142.17529 -200 45 -200 45 -200 45
25754850000 -1.6134964 -143.0024 -200 45 -200 45 -200 45
26004800000 -1.7613721 -144.64835 -200 45 -200 45 -200 45
26254750000 -1.7232224 -146.9679 -200 45 -200 45 -200 45
26504700000 -1.7427634 -147.13916 -200 45 -200 45 -200 45
26754650000 -1.9074805 -149.72121 -200 45 -200 45 -200 45
27004600000 -1.8115104 -151.62566 -200 45 -200 45 -200 45
27254550000 -1.8990953 -151.73595 -200 45 -200 45 -200 45
27504500000 -2.0473967 -154.52061 -200 45 -200 45 -200 45
27754450000 -1.9466803 -155.5416 -200 45 -200 45 -200 45
28004400000 -2.0494578 -156.34448 -200 45 -200 45 -200 45
28254350000 -2.0993373 -159.2354 -200 45 -200 45 -200 45
28504300000 -2.0366447 -159.63931 -200 45 -200 45 -200 45
28754250000 -2.1658828 -161.15677 -200 45 -200 45 -200 45
29004200000 -2.1647263 -163.39827 -200 45 -200 45 -200 45
29254150000 -2.1357503 -163.72113 -200 45 -200 45 -200 45
29504100000 -2.2761183 -166.14772 -200 45 -200 45 -200 45
29754050000 -2.1862888 -167.72881 -200 45 -200 45 -200 45
30004000000 -2.2865779 -168.40634 -200 45 -200 45 -200 45
30253950000 -2.445812 -171.38353 -200 45 -200 45 -200 45
30503900000 -2.2883618 -172.18913 -200 45 -200 45 -200 45
30753850000 -2.4285326 -173.11177 -200 45 -200 45 -200 45
31003800000 -2.4907804 -175.71521 -200 45 -200 45 -200 45
31253750000 -2.3674779 -176.25246 -200 45 -200 45 -200 45
31503700000 -2.5710509 -178.14326 -200 45 -200 45 -200 45
31753650000 -2.536047 179.97978 -200 45 -200 45 -200 45
32003600000 -2.5183969 179.36824 -200 45 -200 45 -200 45
32253550000 -2.6837864 176.91646 -200 45 -200 45 -200 45
32503500000 -2.5165358 175.60559 -200 45 -200 45 -200 45
32753450000 -2.6272731 174.7571 -200 45 -200 45 -200 45
33003400000 -2.7206206 171.82088 -200 45 -200 45 -200 45
33253350000 -2.569135 171.28357 -200 45 -200 45 -200 45
33503300000 -2.8272064 170.40686 -200 45 -200 45 -200 45
33753250000 -2.8295634 167.45616 -200 45 -200 45 -200 45
34003200000 -2.6793652 167.26796 -200 45 -200 45 -200 45
34253150000 -2.9834993 165.59914 -200 45 -200 45 -200 45
34503100000 -2.9325955 163.19199 -200 45 -200 45 -200 45
34753050000 -2.8622363 162.85248 -200 45 -200 45 -200 45
35003000000 -3.100672 160.52466 -200 45 -200 45 -200 45
35252950000 -2.8710473 159.16637 -200 45 -200 45 -200 45
35502900000 -3.0739367 158.85345 -200 45 -200 45 -200 45
35752850000 -3.3061616 155.43781 -200 45 -200 45 -200 45
36002800000 -2.9374087 154.8179 -200 45 -200 45 -200 45
36252750000 -3.1970057 155.30331 -200 45 -200 45 -200 45
36502700000 -3.3659198 152.15973 -200 45 -200 45 -200 45
36752650000 -2.9602556 151.01633 -200 45 -200 45 -200 45
37002600000 -3.1639357 150.88736 -200 45 -200 45 -200 45
37252550000 -3.1467104 148.17764 -200 45 -200 45 -200 45
37502500000 -2.9941676 147.79065 -200 45 -200 45 -200 45
37752450000 -3.2432754 146.96677 -200 45 -200 45 -200 45
38002400000 -3.0669427 144.25946 -200 45 -200 45 -200 45
38252350000 -3.0250638 144.50925 -200 45 -200 45 -200 45
38502300000 -3.2041047 143.08257 -200 45 -200 45 -200 45
38752250000 -2.990696 139.86086 -200 45 -200 45 -200 45
39002200000 -2.9713683 140.43231 -200 45 -200 45 -200 45
39252150000 -3.1148953 138.7128 -200 45 -200 45 -200 45
39502100000 -2.9431028 136.11789 -200 45 -200 45 -200 45
39752050000 -2.8611691 136.80128 -200 45 -200 45 -200 45
40002000000 -3.0537856 131.99352 -200 45 -200 45 -200 45
40251950000 -2.9636679 129.44064 -200 45 -200 45 -200 45
40501900000 -2.8627677 131.07632 -200 45 -200 45 -200 45
40751850000 -2.9223073 129.33658 -200 45 -200 45 -200 45
41001800000 -2.9060857 126.92624 -200 45 -200 45 -200 45
41251750000 -2.8947387 125.70313 -200 45 -200 45 -200 45
41501700000 -2.9236786 123.75043 -200 45 -200 45 -200 45
41751650000 -2.9246471 122.11932 -200 45 -200 45 -200 45
42001600000 -2.9071844 120.94308 -200 45 -200 45 -200 45
42251550000 -2.9947462 119.43826 -200 45 -200 45 -200 45
42501500000 -2.91694 117.99134 -200 45 -200 45 -200 45
42751450000 -2.9326723 116.29446 -200 45 -200 45 -200 45
43001400000 -2.9837313 115.16824 -200 45 -200 45 -200 45
43251350000 -2.9713638 113.5546 -200 45 -200 45 -200 45
43501300000 -2.9825878 112.32247 -200 45 -200 45 -200 45
43751250000 -3.0064228 111.09963 -200 45 -200 45 -200 45
44001200000 -2.9505181 109.49523 -200 45 -200 45 -200 45
44251150000 -3.0044115 108.09034 -200 45 -200 45 -200 45
44501100000 -3.0018876 106.95749 -200 45 -200 45 -200 45
44751050000 -2.9653082 105.68629 -200 45 -200 45 -200 45
45001000000 -2.9741273 104.33033 -200 45 -200 45 -200 45
45250950000 -3.0114717 102.98322 -200 45 -200 45 -200 45
45500900000 -2.9765005 101.84103 -200 45 -200 45 -200 45
45750850000 -2.9768431 100.46468 -200 45 -200 45 -200 45
46000800000 -2.9595251 99.364098 -200 45 -200 45 -200 45
46250750000 -3.0196679 97.622017 -200 45 -200 45 -200 45
46500700000 -2.9788105 96.512619 -200 45 -200 45 -200 45
46750650000 -2.8441703 95.64901 -200 45 -200 45 -200 45
47000600000 -3.0076609 94.049332 -200 45 -200 45 -200 45
47250550000 -3.0193338 92.551628 -200 45 -200 45 -200 45
47500500000 -2.9532199 91.841393 -200 45 -200 45 -200 45
47750450000 -3.0608094 90.342659 -200 45 -200 45 -200 45
48000400000 -3.016573 89.447807 -200 45 -200 45 -200 45
48250350000 -2.9113293 88.564392 -200 45 -200 45 -200 45
48500300000 -2.9580128 86.381378 -200 45 -200 45 -200 45
48750250000 -2.9820535 86.048134 -200 45 -200 45 -200 45
49000200000 -2.9903052 84.913696 -200 45 -200 45 -200 45
49250150000 -2.8723285 82.726334 -200 45 -200 45 -200 45
49500100000 -3.0315881 83.084877 -200 45 -200 45 -200 45
49750050000 -2.9417517 81.901062 -200 45 -200 45 -200 45
50000000000 -2.6594019 79.638206 -200 45 -200 45 -200 45
