!Agilent Technologies,N5227A,US51270434,A.10.00.00
!Agilent N5227A: A.10.00.00
!Date: Friday, February 13, 2026 14:16:12
!Correction: S11(Full 1 Port(1)) 
!S21(Off) 
!S12(Off) 
!S22(Off) 
!S2P File: Measurements: S11, S21, S12, S22:
# Hz S  dB   R 50
10000000 0.012227166 -0.062489636 -200 45 -200 45 -200 45
259950000 0.00046054157 -1.5150759 -200 45 -200 45 -200 45
509900000 -0.0023977358 -2.9937308 -200 45 -200 45 -200 45
759850000 0.0022493755 -4.4109306 -200 45 -200 45 -200 45
1009800000 -0.0066671204 -5.8905926 -200 45 -200 45 -200 45
1259750000 -0.017984474 -7.3446436 -200 45 -200 45 -200 45
1509700000 -0.020764707 -8.8054018 -200 45 -200 45 -200 45
1759650000 -0.027183304 -10.204121 -200 45 -200 45 -200 45
2009600000 -0.030419352 -11.673448 -200 45 -200 45 -200 45
2259550000 -0.037817232 -13.073475 -200 45 -200 45 -200 45
2509500000 -0.048774764 -14.514077 -200 45 -200 45 -200 45
2759450000 -0.042919282 -15.998276 -200 45 -200 45 -200 45
3009400000 -0.056005947 -17.391195 -200 45 -200 45 -200 45
3259350000 -0.055108853 -18.857033 -200 45 -200 45 -200 45
3509300000 -0.056500565 -20.322432 -200 45 -200 45 -200 45
3759250000 -0.074840464 -21.679489 -200 45 -200 45 -200 45
4009200000 -0.07266061 -23.198372 -200 45 -200 45 -200 45
4259150000 -0.083978951 -24.602848 -200 45 -200 45 -200 45
4509100000 -0.098535582 -26.022427 -200 45 -200 45 -200 45
4759050000 -0.0904238 -27.594095 -200 45 -200 45 -200 45
5009000000 -0.10896711 -28.797003 -200 45 -200 45 -200 45
5258950000 -0.12272529 -30.334478 -200 45 -200 45 -200 45
5508900000 -0.11249036 -31.960583 -200 45 -200 45 -200 45
5758850000 -0.15149499 -33.100681 -200 45 -200 45 -200 45
6008800000 -0.15130228 -34.779205 -200 45 -200 45 -200 45
6258750000 -0.14735378 -36.25539 -200 45 -200 45 -200 45
6508700000 -0.17492856 -37.354572 -200 45 -200 45 -200 45
6758650000 -0.17440562 -39.198692 -200 45 -200 45 -200 45
7008600000 -0.18221615 -40.433052 -200 45 -200 45 -200 45
7258550000 -0.20612539 -41.715683 -200 45 -200 45 -200 45
7508500000 -0.20679319 -43.621944 -200 45 -200 45 -200 45
7758450000 -0.21338813 -44.622868 -200 45 -200 45 -200 45
8008400000 -0.23580347 -46.270439 -200 45 -200 45 -200 45
8258350000 -0.23121187 -47.951786 -200 45 -200 45 -200 45
8508300000 -0.23588938 -48.790436 -200 45 -200 45 -200 45
8758250000 -0.26618272 -50.86985 -200 45 -200 45 -200 45
9008200000 -0.25616282 -52.182281 -200 45 -200 45 -200 45
9258150000 -0.25209987 -53.097874 -200 45 -200 45 -200 45
9508100000 -0.30350888 -55.381493 -200 45 -200 45 -200 45
9758050000 -0.27083552 -56.432823 -200 45 -200 45 -200 45
10008000000 -0.2901147 -57.66621 -200 45 -200 45 -200 45
10257950000 -0.35211459 -59.872921 -200 45 -200 45 -200 45
10507900000 -0.27168652 -60.648727 -200 45 -200 45 -200 45
10757850000 -0.35350338 -62.398937 -200 45 -200 45 -200 45
11007800000 -0.36511013 -64.224365 -200 45 -200 45 -200 45
11257750000 -0.29413345 -65.050056 -200 45 -200 45 -200 45
11507700000 -0.41031843 -67.132172 -200 45 -200 45 -200 45
11757650000 -0.38740689 -68.602425 -200 45 -200 45 -200 45
12007600000 -0.33346501 -69.865654 -200 45 -200 45 -200 45
12257550000 -0.48112765 -71.78054 -200 45 -200 45 -200 45
12507500000 -0.34779286 -73.364609 -200 45 -200 45 -200 45
12757450000 -0.41444641 -74.470451 -200 45 -200 45 -200 45
13007400000 -0.50878227 -76.459663 -200 45 -200 45 -200 45
13257350000 -0.37297326 -77.672058 -200 45 -200 45 -200 45
13507300000 -0.53326195 -79.254456 -200 45 -200 45 -200 45
13757250000 -0.44902244 -77.319481 -200 45 -200 45 -200 45
14007200000 -0.40845516 -79.013504 -200 45 -200 45 -200 45
14257150000 -0.53782326 -81.110764 -200 45 -200 45 -200 45
14507100000 -0.48091659 -83.025551 -200 45 -200 45 -200 45
14757050000 -0.46992433 -85.030739 -200 45 -200 45 -200 45
15007000000 -0.65265667 -87.111412 -200 45 -200 45 -200 45
15256950000 -0.54287106 -89.222916 -200 45 -200 45 -200 45
15506900000 -0.63027358 -91.716705 -200 45 -200 45 -200 45
15756850000 -0.7453472 -93.835396 -200 45 -200 45 -200 45
16006800000 -0.63987076 -95.072212 -200 45 -200 45 -200 45
16256750000 -0.79415065 -96.640953 -200 45 -200 45 -200 45
16506700000 -0.71999604 -98.302788 -200 45 -200 45 -200 45
16756650000 -0.68857038 -99.604599 -200 45 -200 45 -200 45
17006600000 -0.86152464 -101.41077 -200 45 -200 45 -200 45
17256550000 -0.68295795 -103.07068 -200 45 -200 45 -200 45
17506500000 -0.74652803 -104.42786 -200 45 -200 45 -200 45
17756450000 -0.95847541 -106.16405 -200 45 -200 45 -200 45
18006400000 -0.77247018 -108.0151 -200 45 -200 45 -200 45
18256350000 -0.89548397 -109.32492 -200 45 -200 45 -200 45
18506300000 -0.99640167 -111.19102 -200 45 -200 45 -200 45
18756250000 -0.87368727 -112.95605 -200 45 -200 45 -200 45
19006200000 -1.0769694 -114.15418 -200 45 -200 45 -200 45
19256150000 -1.0344077 -116.19029 -200 45 -200 45 -200 45
19506100000 -1.0336607 -117.55574 -200 45 -200 45 -200 45
19756050000 -1.1721644 -119.18369 -200 45 -200 45 -200 45
20006000000 -0.98780936 -121.73366 -200 45 -200 45 -200 45
20255950000 -1.1547347 -122.47227 -200 45 -200 45 -200 45
20505900000 -1.2913136 -124.54848 -200 45 -200 45 -200 45
20755850000 -1.0389757 -127.16927 -200 45 -200 45 -200 45
21005800000 -1.244194 -127.17004 -200 45 -200 45 -200 45
21255750000 -1.375855 -129.46458 -200 45 -200 45 -200 45
21505700000 -1.2374172 -131.73082 -200 45 -200 45 -200 45
21755650000 -1.4684711 -131.91515 -200 45 -200 45 -200 45
22005600000 -1.49833 -134.43109 -200 45 -200 45 -200 45
22255550000 -1.4542902 -135.67677 -200 45 -200 45 -200 45
22505500000 -1.6067128 -136.85556 -200 45 -200 45 -200 45
22755450000 -1.5472741 -139.82379 -200 45 -200 45 -200 45
23005400000 -1.6090105 -140.1803 -200 45 -200 45 -200 45
23255350000 -1.7560041 -142.34634 -200 45 -200 45 -200 45
23505300000 -1.6576934 -144.62634 -200 45 -200 45 -200 45
23755250000 -1.7523794 -144.48894 -200 45 -200 45 -200 45
24005200000 -1.8692063 -147.74742 -200 45 -200 45 -200 45
24255150000 -1.7386583 -149.4911 -200 45 -200 45 -200 45
24505100000 -1.8995863 -149.35634 -200 45 -200 45 -200 45
24755050000 -2.0167594 -152.64812 -200 45 -200 45 -200 45
25005000000 -1.8992753 -153.53807 -200 45 -200 45 -200 45
25254950000 -2.0057175 -154.20804 -200 45 -200 45 -200 45
25504900000 -2.0330012 -157.04897 -200 45 -200 45 -200 45
25754850000 -2.012656 -157.70726 -200 45 -200 45 -200 45
26004800000 -2.188978 -159.71602 -200 45 -200 45 -200 45
26254750000 -2.1201468 -161.85155 -200 45 -200 45 -200 45
26504700000 -2.1668859 -162.03835 -200 45 -200 45 -200 45
26754650000 -2.3167527 -165.02197 -200 45 -200 45 -200 45
27004600000 -2.1911266 -166.62592 -200 45 -200 45 -200 45
27254550000 -2.3199446 -166.95396 -200 45 -200 45 -200 45
27504500000 -2.4516137 -169.95146 -200 45 -200 45 -200 45
27754450000 -2.3366458 -170.67871 -200 45 -200 45 -200 45
28004400000 -2.4603956 -171.62802 -200 45 -200 45 -200 45
28254350000 -2.4751742 -174.49808 -200 45 -200 45 -200 45
28504300000 -2.409452 -174.91599 -200 45 -200 45 -200 45
28754250000 -2.557349 -176.69319 -200 45 -200 45 -200 45
29004200000 -2.5197117 -178.77162 -200 45 -200 45 -200 45
29254150000 -2.5177972 -179.10988 -200 45 -200 45 -200 45
29504100000 -2.6487226 178.26401 -200 45 -200 45 -200 45
29754050000 -2.5283625 176.92879 -200 45 -200 45 -200 45
30004000000 -2.6831381 176.03061 -200 45 -200 45 -200 45
30253950000 -2.7988482 172.94283 -200 45 -200 45 -200 45
30503900000 -2.6348782 172.38516 -200 45 -200 45 -200 45
30753850000 -2.8053629 171.23433 -200 45 -200 45 -200 45
31003800000 -2.8260107 168.74057 -200 45 -200 45 -200 45
31253750000 -2.6929481 168.29163 -200 45 -200 45 -200 45
31503700000 -2.9077165 166.26193 -200 45 -200 45 -200 45
31753650000 -2.8333282 164.50781 -200 45 -200 45 -200 45
32003600000 -2.8360527 163.81491 -200 45 -200 45 -200 45
32253550000 -2.9725876 161.27888 -200 45 -200 45 -200 45
32503500000 -2.7987635 160.26906 -200 45 -200 45 -200 45
32753450000 -2.930975 159.17847 -200 45 -200 45 -200 45
33003400000 -2.9756949 156.43082 -200 45 -200 45 -200 45
33253350000 -2.8382158 156.09441 -200 45 -200 45 -200 45
33503300000 -3.1116557 154.91785 -200 45 -200 45 -200 45
33753250000 -3.053426 152.06885 -200 45 -200 45 -200 45
34003200000 -2.9489629 152.0683 -200 45 -200 45 -200 45
34253150000 -3.2654889 150.15199 -200 45 -200 45 -200 45
34503100000 -3.0939298 147.99298 -200 45 -200 45 -200 45
34753050000 -3.1115992 147.63455 -200 45 -200 45 -200 45
35003000000 -3.3191705 145.28052 -200 45 -200 45 -200 45
35252950000 -3.055589 144.15132 -200 45 -200 45 -200 45
35502900000 -3.3068929 143.60326 -200 45 -200 45 -200 45
35752850000 -3.4364507 140.37325 -200 45 -200 45 -200 45
36002800000 -3.0959108 140.04207 -200 45 -200 45 -200 45
36252750000 -3.4002547 140.17058 -200 45 -200 45 -200 45
36502700000 -3.4522083 137.03818 -200 45 -200 45 -200 45
36752650000 -3.0674095 136.41998 -200 45 -200 45 -200 45
37002600000 -3.3264165 135.79359 -200 45 -200 45 -200 45
37252550000 -3.2384286 133.32007 -200 45 -200 45 -200 45
37502500000 -3.1475093 133.19829 -200 45 -200 45 -200 45
37752450000 -3.3654003 132.03036 -200 45 -200 45 -200 45
38002400000 -3.1422677 129.73685 -200 45 -200 45 -200 45
38252350000 -3.1754148 130.12814 -200 45 -200 45 -200 45
38502300000 -3.2998457 128.34346 -200 45 -200 45 -200 45
38752250000 -3.0429997 125.32918 -200 45 -200 45 -200 45
39002200000 -3.105906 126.11212 -200 45 -200 45 -200 45
39252150000 -3.1885746 124.0374 -200 45 -200 45 -200 45
39502100000 -2.9983375 121.75378 -200 45 -200 45 -200 45
39752050000 -2.949482 122.66781 -200 45 -200 45 -200 45
40002000000 -3.1023862 116.68049 -200 45 -200 45 -200 45
40251950000 -3.0020347 114.75923 -200 45 -200 45 -200 45
40501900000 -2.9167011 117.34068 -200 45 -200 45 -200 45
40751850000 -2.96962 115.43495 -200 45 -200 45 -200 45
41001800000 -2.9459519 113.30476 -200 45 -200 45 -200 45
41251750000 -2.9140997 112.24059 -200 45 -200 45 -200 45
41501700000 -2.9598987 110.29211 -200 45 -200 45 -200 45
41751650000 -2.9103878 108.91618 -200 45 -200 45 -200 45
42001600000 -2.9221911 107.62657 -200 45 -200 45 -200 45
42251550000 -2.9768803 106.29204 -200 45 -200 45 -200 45
42501500000 -2.9107485 105.03554 -200 45 -200 45 -200 45
42751450000 -2.9246409 103.50314 -200 45 -200 45 -200 45
43001400000 -2.9734576 102.26117 -200 45 -200 45 -200 45
43251350000 -2.9718623 100.93906 -200 45 -200 45 -200 45
43501300000 -2.9466631 99.669342 -200 45 -200 45 -200 45
43751250000 -2.9766023 98.489372 -200 45 -200 45 -200 45
44001200000 -2.9300926 97.001152 -200 45 -200 45 -200 45
44251150000 -2.9430604 95.812347 -200 45 -200 45 -200 45
44501100000 -2.9695761 94.799545 -200 45 -200 45 -200 45
44751050000 -2.9300492 93.397675 -200 45 -200 45 -200 45
45001000000 -2.9140148 92.128731 -200 45 -200 45 -200 45
45250950000 -2.9499602 91.074768 -200 45 -200 45 -200 45
45500900000 -2.9069364 89.886429 -200 45 -200 45 -200 45
45750850000 -2.9031351 88.785591 -200 45 -200 45 -200 45
46000800000 -2.8763125 87.768936 -200 45 -200 45 -200 45
46250750000 -2.9460645 86.410645 -200 45 -200 45 -200 45
46500700000 -2.9019549 85.10347 -200 45 -200 45 -200 45
46750650000 -2.7871125 84.271324 -200 45 -200 45 -200 45
47000600000 -2.9157059 82.857903 -200 45 -200 45 -200 45
47250550000 -2.9039307 81.414558 -200 45 -200 45 -200 45
47500500000 -2.8652561 80.770279 -200 45 -200 45 -200 45
47750450000 -2.9278488 79.410553 -200 45 -200 45 -200 45
48000400000 -2.8916004 78.630791 -200 45 -200 45 -200 45
48250350000 -2.8223183 77.974266 -200 45 -200 45 -200 45
48500300000 -2.8084381 75.870735 -200 45 -200 45 -200 45
48750250000 -2.8765483 75.520226 -200 45 -200 45 -200 45
49000200000 -2.8721833 74.729836 -200 45 -200 45 -200 45
49250150000 -2.7274482 72.368912 -200 45 -200 45 -200 45
49500100000 -2.8959212 72.915436 -200 45 -200 45 -200 45
49750050000 -2.8197248 71.689842 -200 45 -200 45 -200 45
50000000000 -2.5245361 69.973862 -200 45 -200 45 -200 45
