!Agilent Technologies,N5227A,US51270434,A.10.00.00
!Agilent N5227A: A.10.00.00
!Date: Monday, January 26, 2026 17:21:10
!Correction: S11(Full 1 Port(1)) 
!S1P File: Measurement: S11:
# Hz S  dB   R 50
10000000 -0.017354583 0.24353366
209950000 0.010957737 -2.1533871
409900000 0.016517727 -4.3001652
609850000 -0.00026033021 -6.3878045
809800000 -0.0046960837 -8.4924631
1009750000 0.0019754246 -10.560701
1209700000 -0.02065935 -12.64879
1409650000 -0.026000474 -14.788966
1609600000 -0.028722236 -16.884403
1809550000 -0.040702522 -18.911196
2009500000 -0.056460939 -21.034983
2209450000 -0.064556941 -23.089458
2409400000 -0.068903349 -25.068926
2609350000 -0.10058291 -27.192219
2809300000 -0.10921864 -29.224098
3009250000 -0.11001409 -31.267172
3209200000 -0.1342205 -33.22879
3409150000 -0.16387331 -35.337814
3609100000 -0.15970026 -37.32975
3809050000 -0.18657094 -39.403172
4009000000 -0.21502867 -41.44482
4208950000 -0.23562238 -43.384296
4408900000 -0.24608126 -45.386692
4608850000 -0.27691779 -47.357803
4808800000 -0.29643416 -49.400986
5008750000 -0.29993832 -51.224186
5208700000 -0.33164802 -53.262253
5408650000 -0.35833237 -55.293365
5608600000 -0.3752405 -57.292042
5808550000 -0.38587567 -59.089409
6008500000 -0.43239436 -61.176262
6208450000 -0.44654045 -63.093765
6408400000 -0.4770205 -64.973274
6608350000 -0.49185139 -66.825584
6808300000 -0.54166847 -68.842834
7008250000 -0.55599689 -70.683662
7208200000 -0.56795847 -72.542633
7408150000 -0.60779792 -74.532669
7608100000 -0.62737036 -76.323761
7808050000 -0.65423661 -78.173416
8008000000 -0.67293298 -80.035118
8207950000 -0.71298629 -81.957794
8407900000 -0.71801502 -83.655205
8607850000 -0.76008058 -85.598892
8807800000 -0.78753912 -87.475395
9007750000 -0.80732131 -89.207581
9207700000 -0.82206464 -90.944405
9407650000 -0.87195289 -92.783966
9607600000 -0.89358467 -94.699898
9807550000 -0.9064157 -96.257652
10007500000 -0.9474895 -98.159004
10207450000 -0.999367 -99.928192
10407400000 -1.0067633 -101.62944
10607350000 -1.0383868 -103.26269
10807300000 -1.0782833 -105.11534
11007250000 -1.0947748 -106.72086
11207200000 -1.1184129 -108.33372
11407150000 -1.1595197 -110.15948
11607100000 -1.1981915 -111.9295
11807050000 -1.1908809 -113.59361
12007000000 -1.2419674 -115.1169
12206950000 -1.267116 -116.88554
12406900000 -1.2880721 -118.59486
12606850000 -1.3010024 -120.00101
12806800000 -1.352416 -121.7349
13006750000 -1.3632656 -123.47582
13206700000 -1.366978 -124.88168
13406650000 -1.4156636 -126.57172
13606600000 -1.4722122 -128.51477
13806550000 -1.4712908 -130.05655
14006500000 -1.4833221 -131.13206
14206450000 -1.5450772 -132.87109
14406400000 -1.5473366 -134.40782
14606350000 -1.559714 -135.63699
14806300000 -1.619217 -137.43159
15006250000 -1.6455895 -139.07173
15206200000 -1.6147819 -140.52725
15406150000 -1.6562344 -141.94754
15606100000 -1.7367778 -143.9012
15806050000 -1.7122507 -145.25749
16006000000 -1.7054092 -146.4968
16205950000 -1.7770221 -147.9865
16405900000 -1.7903652 -149.638
16605850000 -1.7524158 -150.92509
16805800000 -1.8229975 -152.29356
17005750000 -1.8597941 -153.98386
17205700000 -1.8256615 -155.37276
17405650000 -1.8153521 -156.59624
17605600000 -1.936981 -158.02264
17805550000 -1.9480398 -159.76152
18005500000 -1.9060488 -160.95551
18205450000 -1.9709432 -162.20076
18405400000 -2.041024 -163.75165
18605350000 -1.9999484 -165.29204
18805300000 -1.984228 -166.37859
19005250000 -2.0998292 -167.72105
19205200000 -2.0819654 -169.35777
19405150000 -2.0612569 -170.65028
19605100000 -2.0993769 -171.75616
19805050000 -2.1530392 -173.2942
20005000000 -2.0836341 -174.68275
20204950000 -2.1346178 -175.72441
20404900000 -2.2053492 -177.12756
20604850000 -2.1703293 -178.74126
20804800000 -2.1011679 -179.9583
21004750000 -2.223983 179.26662
21204700000 -2.2985442 177.55948
21404650000 -2.2190137 176.01312
21604600000 -2.2095423 175.17413
21804550000 -2.3385658 174.11807
22004500000 -2.3396194 172.42352
22204450000 -2.2993727 171.23334
22404400000 -2.3479817 170.46512
22604350000 -2.3849258 168.83836
22804300000 -2.3610387 167.51067
23004250000 -2.3584301 166.49858
23204200000 -2.4360607 165.51065
23404150000 -2.3996634 163.6965
23604100000 -2.3820674 162.8364
23804050000 -2.4459467 161.97772
24004000000 -2.4610767 160.46562
24203950000 -2.4286807 158.9617
24403900000 -2.42572 158.37683
24603850000 -2.5382462 157.25488
24803800000 -2.4772487 155.5508
25003750000 -2.4819777 154.61613
25203700000 -2.4871743 153.95341
25403650000 -2.5654428 152.59914
25603600000 -2.5236075 151.10773
25803550000 -2.527307 150.39206
26003500000 -2.5680783 149.17953
26203450000 -2.555752 147.87015
26403400000 -2.57442 146.73592
26603350000 -2.5674889 145.94331
26803300000 -2.6428123 144.32204
27003250000 -2.5664229 143.37358
27203200000 -2.6371772 142.74332
27403150000 -2.6355951 141.43401
27603100000 -2.6592863 140.32193
27803050000 -2.6052005 139.48135
28003000000 -2.6337097 138.89503
28202950000 -2.6508152 137.13603
28402900000 -2.6096084 136.33582
28602850000 -2.6276979 135.31206
28802800000 -2.6655209 134.37062
29002750000 -2.6766264 132.76552
29202700000 -2.6562085 132.23668
29402650000 -2.6980844 131.45567
29602600000 -2.7015243 130.035
29802550000 -2.7187717 129.30753
30002500000 -2.7136481 128.19688
30202450000 -2.7343829 127.37139
30402400000 -2.6925144 126.10073
30602350000 -2.7060208 125.6407
30802300000 -2.7242296 124.51252
31002250000 -2.6906919 123.20766
31202200000 -2.6735313 122.54036
31402150000 -2.6643329 121.89477
31602100000 -2.7632771 120.87618
31802050000 -2.6794055 119.49516
32002000000 -2.6821539 119.09318
32201950000 -2.7092071 117.9696
32401900000 -2.7220421 116.78042
32601850000 -2.6798632 116.04726
32801800000 -2.6927419 115.15752
33001750000 -2.728833 114.22161
33201700000 -2.6616607 113.28214
33401650000 -2.6880643 112.40141
33601600000 -2.667604 111.56518
33801550000 -2.6888514 110.40337
34001500000 -2.6186306 109.87992
34201450000 -2.6822462 108.78119
34401400000 -2.659035 107.88907
34601350000 -2.6417334 106.87237
34801300000 -2.6355309 106.57594
35001250000 -2.6327055 105.17414
35201200000 -2.6169639 104.30075
35401150000 -2.5370755 103.60157
35601100000 -2.6108174 102.80045
35801050000 -2.6698704 101.79742
36001000000 -2.573298 100.33265
36200950000 -2.5960295 100.2141
36400900000 -2.6247461 98.951118
36600850000 -2.6229215 98.191978
36800800000 -2.5805082 97.298294
37000750000 -2.5668228 96.391846
37200700000 -2.5771558 95.664803
37400650000 -2.4969344 94.819656
37600600000 -2.5619905 94.232979
37800550000 -2.5179715 93.095497
38000500000 -2.5652142 92.12532
38200450000 -2.4577007 91.625481
38400400000 -2.5758743 90.76059
38600350000 -2.4540792 89.906898
38800300000 -2.483623 89.022369
39000250000 -2.4579926 88.274033
39200200000 -2.4785342 87.398064
39400150000 -2.4723096 86.766594
39600100000 -2.3823767 85.960114
39800050000 -2.4213312 84.754585
40000000000 -2.379761 83.746132
