!Agilent Technologies,N5227A,US51270434,A.10.00.00
!Agilent N5227A: A.10.00.00
!Date: Monday, January 26, 2026 17:21:30
!Correction: S11(Full 1 Port(1)) 
!S1P File: Measurement: S11:
# Hz S  dB   R 50
10000000 -0.020396698 0.16690058
209950000 0.01376147 -1.619476
409900000 0.014494756 -3.2133706
609850000 0.0048966114 -4.8195176
809800000 -0.00050275505 -6.428493
1009750000 0.0056863083 -7.9463215
1209700000 -0.013305488 -9.5331469
1409650000 -0.013879125 -11.145875
1609600000 -0.01064337 -12.70516
1809550000 -0.01874 -14.237213
2009500000 -0.028133655 -15.86266
2209450000 -0.027336823 -17.424911
2409400000 -0.032549445 -18.918507
2609350000 -0.055618573 -20.538305
2809300000 -0.05850789 -22.051569
3009250000 -0.049095813 -23.627644
3209200000 -0.066957384 -25.10207
3409150000 -0.088351384 -26.740723
3609100000 -0.07881289 -28.29151
3809050000 -0.092960089 -29.881712
4009000000 -0.11366061 -31.463715
4208950000 -0.12443125 -32.954948
4408900000 -0.1264376 -34.496124
4608850000 -0.14598893 -36.031769
4808800000 -0.15669164 -37.632664
5008750000 -0.15084875 -39.020145
5208700000 -0.1691107 -40.638649
5408650000 -0.18445385 -42.247749
5608600000 -0.19289228 -43.809837
5808550000 -0.19236076 -45.241005
6008500000 -0.23081701 -46.888218
6208450000 -0.23405989 -48.42897
6408400000 -0.24367297 -49.934284
6608350000 -0.25243649 -51.426132
6808300000 -0.28825182 -53.063694
7008250000 -0.29387188 -54.581425
7208200000 -0.29326749 -56.042
7408150000 -0.32553139 -57.704929
7608100000 -0.34132597 -59.166439
7808050000 -0.35640368 -60.676914
8008000000 -0.3675158 -62.202515
8207950000 -0.39904425 -63.836723
8407900000 -0.39288792 -65.193672
8607850000 -0.41982672 -66.791214
8807800000 -0.44736233 -68.389465
9007750000 -0.45977604 -69.863556
9207700000 -0.45909578 -71.301262
9407650000 -0.48966622 -72.84304
9607600000 -0.5181551 -74.536766
9807550000 -0.51404685 -75.801994
10007500000 -0.54765463 -77.426514
10207450000 -0.58406502 -78.90519
10407400000 -0.59282416 -80.464722
10607350000 -0.60491562 -81.808861
10807300000 -0.64302748 -83.427422
11007250000 -0.65264934 -84.91066
11207200000 -0.66497695 -86.266106
11407150000 -0.6981262 -87.882095
11607100000 -0.74574012 -89.460793
11807050000 -0.73317897 -90.864037
12007000000 -0.76706004 -92.269913
12206950000 -0.79554898 -93.868271
12406900000 -0.81079113 -95.342567
12606850000 -0.80910408 -96.649956
12806800000 -0.85615438 -98.23394
13006750000 -0.88055545 -99.822166
13206700000 -0.87449485 -101.1119
13406650000 -0.90366966 -102.62265
13606600000 -0.8694939 -100.01061
13806550000 -0.88658077 -101.97816
14006500000 -0.89387631 -103.80121
14206450000 -0.97054881 -106.00285
14406400000 -0.99844992 -108.18475
14606350000 -1.0087476 -110.04318
14806300000 -1.0867616 -112.8629
15006250000 -1.1259716 -114.50823
15206200000 -1.1092317 -115.85681
15406150000 -1.1282209 -117.59601
15606100000 -1.209886 -119.22588
15806050000 -1.2196931 -121.2802
16006000000 -1.1789715 -121.45212
16205950000 -1.2468683 -122.94078
16405900000 -1.2827624 -124.54902
16605850000 -1.2399297 -125.83079
16805800000 -1.2901827 -127.13203
17005750000 -1.3461275 -128.76781
17205700000 -1.3324556 -130.15962
17405650000 -1.2948508 -131.42442
17605600000 -1.3983662 -132.73073
17805550000 -1.4554242 -134.4705
18005500000 -1.4071672 -135.76945
18205450000 -1.442418 -136.94789
18405400000 -1.5396922 -138.45946
18605350000 -1.5318222 -140.07245
18805300000 -1.489879 -141.27229
19005250000 -1.5996059 -142.46082
19205200000 -1.6152661 -144.11028
19405150000 -1.5999625 -145.51707
19605100000 -1.6243571 -146.6626
19805050000 -1.7018503 -148.09171
20005000000 -1.6385728 -149.67648
20204950000 -1.671761 -150.7988
20404900000 -1.7580833 -152.11574
20604850000 -1.7483143 -153.73543
20804800000 -1.6746521 -155.1819
21004750000 -1.7522651 -155.96497
21204700000 -1.8862551 -157.51414
21404650000 -1.8206048 -159.23878
21604600000 -1.7954576 -160.30188
21804550000 -1.9030341 -161.15752
22004500000 -1.9616511 -162.97995
22204450000 -1.9163668 -164.42365
22404400000 -1.9583291 -165.31529
22604350000 -2.0217323 -166.75494
22804300000 -2.0080893 -168.25764
23004250000 -1.998507 -169.48094
23204200000 -2.0762727 -170.37772
23404150000 -2.0831501 -172.24664
23604100000 -2.0521507 -173.38669
23804050000 -2.1156743 -174.31221
24004000000 -2.1470323 -175.72322
24203950000 -2.1361089 -177.46663
24403900000 -2.1100283 -178.29068
24603850000 -2.23053 -179.2997
24803800000 -2.2084205 178.84807
25003750000 -2.2116792 177.70093
25203700000 -2.203409 176.88316
25403650000 -2.2985704 175.69534
25603600000 -2.2903314 173.92728
25803550000 -2.2789817 173.05612
26003500000 -2.3242328 171.90633
26203450000 -2.3321309 170.44997
26403400000 -2.3582957 169.16515
26603350000 -2.3475003 168.27718
26803300000 -2.4500225 166.73055
27003250000 -2.375802 165.40138
27203200000 -2.436039 164.74431
27403150000 -2.4586399 163.41043
27603100000 -2.4794054 162.08035
27803050000 -2.4424129 160.91901
28003000000 -2.4600239 160.41328
28202950000 -2.4987752 158.57051
28402900000 -2.4569855 157.52393
28602850000 -2.5005274 156.36076
28802800000 -2.5291212 155.42505
29002750000 -2.562901 153.67383
29202700000 -2.5359497 152.96452
29402650000 -2.5876961 152.08972
29602600000 -2.6097751 150.61012
29802550000 -2.6208737 149.6554
30002500000 -2.6350248 148.47223
30202450000 -2.654768 147.59998
30402400000 -2.6416709 146.09845
30602350000 -2.640548 145.44487
30802300000 -2.6604602 144.31018
31002250000 -2.6584332 142.84265
31202200000 -2.6405241 141.96495
31402150000 -2.62626 141.22789
31602100000 -2.7190754 140.21387
31802050000 -2.6670108 138.52808
32002000000 -2.6602416 138.10905
32201950000 -2.6883135 136.92355
32401900000 -2.723691 135.58601
32601850000 -2.6881533 134.51654
32801800000 -2.6958392 133.68848
33001750000 -2.7391844 132.69252
33201700000 -2.6965415 131.51241
33401650000 -2.7242682 130.58519
33601600000 -2.6906865 129.5743
33801550000 -2.7357018 128.34749
34001500000 -2.658381 127.51721
34201450000 -2.7271481 126.43199
34401400000 -2.6984518 125.39051
34601350000 -2.7020648 124.20731
34801300000 -2.6926832 123.8898
35001250000 -2.7094786 122.39767
35201200000 -2.6945763 121.27499
35401150000 -2.6161072 120.49103
35601100000 -2.6859682 119.46851
35801050000 -2.7257121 118.48937
36001000000 -2.6856449 116.88396
36200950000 -2.6721933 116.65161
36400900000 -2.7117069 115.25171
36600850000 -2.7189887 114.41605
36800800000 -2.6807134 113.27523
37000750000 -2.6793578 112.24986
37200700000 -2.6911552 111.45551
37400650000 -2.636771 110.50123
37600600000 -2.6655047 109.89197
37800550000 -2.6639175 108.60556
38000500000 -2.6966374 107.41634
38200450000 -2.6106863 106.89035
38400400000 -2.7126863 105.81752
38600350000 -2.6054969 104.86686
38800300000 -2.5984032 104.04426
39000250000 -2.601788 103.04736
39200200000 -2.6269557 102.22335
39400150000 -2.6338511 101.30167
39600100000 -2.4942813 100.26587
39800050000 -2.5661275 99.332458
40000000000 -2.5448942 98.108864
