!Agilent Technologies,N5227A,US51270434,A.10.00.00
!Agilent N5227A: A.10.00.00
!Date: Monday, January 26, 2026 17:21:49
!Correction: S11(Full 1 Port(1)) 
!S1P File: Measurement: S11:
# Hz S  dB   R 50
10000000 -0.023976136 0.17246179
209950000 0.011533497 -1.3617138
409900000 0.014068503 -2.7923014
609850000 0.010090218 -4.1678376
809800000 0.0019977279 -5.5623236
1009750000 0.0062234565 -6.877964
1209700000 -0.0050597847 -8.262085
1409650000 -0.010149553 -9.6710854
1609600000 -0.0059093335 -11.032489
1809550000 -0.011803703 -12.374563
2009500000 -0.015564441 -13.770841
2209450000 -0.021122083 -15.15981
2409400000 -0.019866234 -16.417152
2609350000 -0.039939396 -17.840025
2809300000 -0.040710203 -19.15098
3009250000 -0.032499362 -20.546579
3209200000 -0.051717702 -21.79784
3409150000 -0.064970739 -23.238091
3609100000 -0.052390888 -24.591232
3809050000 -0.064353347 -25.979109
4009000000 -0.080711141 -27.368984
4208950000 -0.089183569 -28.653542
4408900000 -0.088341296 -30.006491
4608850000 -0.10143785 -31.33667
4808800000 -0.11461676 -32.738213
5008750000 -0.10508442 -33.95866
5208700000 -0.11182953 -35.37381
5408650000 -0.12709075 -36.796799
5608600000 -0.13070883 -38.198036
5808550000 -0.12714407 -39.418571
6008500000 -0.15975174 -40.861759
6208450000 -0.16158579 -42.251064
6408400000 -0.17168485 -43.55957
6608350000 -0.17367345 -44.868092
6808300000 -0.20282923 -46.338604
7008250000 -0.20838054 -47.670074
7208200000 -0.20204671 -48.956432
7408150000 -0.22677119 -50.449707
7608100000 -0.23419312 -51.766884
7808050000 -0.24787755 -53.096619
8008000000 -0.2566388 -54.450817
8207950000 -0.28827393 -55.8937
8407900000 -0.27668801 -57.137974
8607850000 -0.29542851 -58.514267
8807800000 -0.31816056 -59.981956
9007750000 -0.33069447 -61.281368
9207700000 -0.32313985 -62.560902
9407650000 -0.3458429 -63.924377
9607600000 -0.36935943 -65.475754
9807550000 -0.36697391 -66.600128
10007500000 -0.38718116 -68.052551
10207450000 -0.41845655 -69.383385
10407400000 -0.43000743 -70.815414
10607350000 -0.4306252 -71.989822
10807300000 -0.46614182 -73.491081
11007250000 -0.47873455 -74.850975
11207200000 -0.48592192 -76.049973
11407150000 -0.50735688 -77.541573
11607100000 -0.55211872 -78.974449
11807050000 -0.54028672 -80.272072
12007000000 -0.56229573 -81.516953
12206950000 -0.59097844 -82.984276
12406900000 -0.60875553 -84.3396
12606850000 -0.59851748 -85.559486
12806800000 -0.63823336 -87.039001
13006750000 -0.66491199 -88.46125
13206700000 -0.65193915 -89.672348
13406650000 -0.67041731 -91.038086
13606600000 -0.71355659 -92.298271
13806550000 -0.7249437 -93.65313
14006500000 -0.72176933 -95.077377
14206450000 -0.77711499 -96.558739
14406400000 -0.7920081 -97.878555
14606350000 -0.78025728 -99.061638
14806300000 -0.82600957 -100.4578
15006250000 -0.86664158 -102.05389
15206200000 -0.85316938 -103.35093
15406150000 -0.85111552 -104.52048
15606100000 -0.92566127 -106.00674
15806050000 -0.93228406 -107.50127
16006000000 -0.91481435 -108.70152
16205950000 -0.96169466 -110.04449
16405900000 -1.0058014 -111.54469
16605850000 -0.96581429 -112.80341
16805800000 -0.99603587 -113.98755
17005750000 -1.0606003 -115.56272
17205700000 -1.0514983 -116.92071
17405650000 -1.0026566 -118.15651
17605600000 -1.0922266 -119.35677
17805550000 -1.1701952 -121.0293
18005500000 -1.1177216 -122.28268
18205450000 -1.1343625 -123.3874
18405400000 -1.2330524 -124.83273
18605350000 -1.2436341 -126.3981
18805300000 -1.1949691 -127.6087
19005250000 -1.2808951 -128.71062
19205200000 -1.3297415 -130.2854
19405150000 -1.3119845 -131.69601
19605100000 -1.3229828 -132.86401
19805050000 -1.4084144 -134.19095
20005000000 -1.3543251 -135.75224
20204950000 -1.3686935 -136.87321
20404900000 -1.4623508 -138.1348
20604850000 -1.4660866 -139.69136
20804800000 -1.3816769 -141.19901
21004750000 -1.4407103 -141.97223
21204700000 -1.5893873 -143.36922
21404650000 -1.5435535 -145.10551
21604600000 -1.4984914 -146.31099
21804550000 -1.5951632 -147.0392
22004500000 -1.6745555 -148.7726
22204450000 -1.6313969 -150.30997
22404400000 -1.6668029 -151.23447
22604350000 -1.74354 -152.54428
22804300000 -1.7314991 -154.05045
23004250000 -1.7280591 -155.40237
23204200000 -1.7967252 -156.24773
23404150000 -1.8173414 -157.99942
23604100000 -1.7861661 -159.31776
23804050000 -1.8557885 -160.21124
24004000000 -1.8887568 -161.54288
24203950000 -1.8903269 -163.34802
24403900000 -1.8566058 -164.27156
24603850000 -1.9652023 -165.1976
24803800000 -1.9654572 -167.03606
25003750000 -1.9639797 -168.30446
25203700000 -1.957944 -169.12383
25403650000 -2.0525191 -170.19687
25603600000 -2.0620434 -172.05321
25803550000 -2.048862 -172.99594
26003500000 -2.0890684 -174.09944
26203450000 -2.1035161 -175.6044
26403400000 -2.1455081 -176.93709
26603350000 -2.1321225 -177.90204
26803300000 -2.234386 -179.2574
27003250000 -2.1653752 179.22301
27203200000 -2.2284145 178.48732
27403150000 -2.2593944 177.1814
27603100000 -2.2890964 175.8298
27803050000 -2.2677784 174.50977
28003000000 -2.2635062 173.93237
28202950000 -2.3344958 172.20976
28402900000 -2.2909789 170.97885
28602850000 -2.3345075 169.83878
28802800000 -2.3637929 168.90678
29002750000 -2.4098284 167.1179
29202700000 -2.3791673 166.23273
29402650000 -2.4240465 165.33624
29602600000 -2.4607296 163.85507
29802550000 -2.4715688 162.8578
30002500000 -2.4973848 161.62064
30202450000 -2.5126188 160.76694
30402400000 -2.5254595 159.06619
30602350000 -2.506264 158.34494
30802300000 -2.555618 157.21095
31002250000 -2.5559194 155.67998
31202200000 -2.5288868 154.78857
31402150000 -2.5402954 153.9366
31602100000 -2.6194453 152.97449
31802050000 -2.5964687 151.13866
32002000000 -2.5537488 150.62027
32201950000 -2.6015985 149.40289
32401900000 -2.6502829 148.05557
32601850000 -2.611623 146.91066
32801800000 -2.6157973 146.03645
33001750000 -2.6772096 144.96695
33201700000 -2.6467214 143.63808
33401650000 -2.6590605 142.86064
33601600000 -2.6443958 141.73869
33801550000 -2.6968029 140.54561
34001500000 -2.6207206 139.48605
34201450000 -2.6911998 138.44853
34401400000 -2.6694493 137.27309
34601350000 -2.6761634 136.06761
34801300000 -2.6586056 135.62128
35001250000 -2.6800101 134.0424
35201200000 -2.6889946 132.89496
35401150000 -2.5716004 132.01016
35601100000 -2.6574807 131.02847
35801050000 -2.719836 129.93852
36001000000 -2.7083867 128.20839
36200950000 -2.6898081 127.86598
36400900000 -2.7447047 126.44168
36600850000 -2.7245805 125.52478
36800800000 -2.7113633 124.25628
37000750000 -2.7121131 123.21175
37200700000 -2.7064831 122.3385
37400650000 -2.6884003 121.21174
37600600000 -2.7089305 120.66703
37800550000 -2.7135274 119.26319
38000500000 -2.748224 118.12955
38200450000 -2.6730726 117.38687
38400400000 -2.7490308 116.4403
38600350000 -2.6551061 115.29767
38800300000 -2.6792359 114.2577
39000250000 -2.6400049 113.4998
39200200000 -2.6841238 112.49398
39400150000 -2.6986809 111.58152
39600100000 -2.5903451 110.51422
39800050000 -2.6232843 109.39211
40000000000 -2.614712 108.15482
