!Agilent Technologies,N5227A,US51270434,A.10.00.00
!Agilent N5227A: A.10.00.00
!Date: Monday, January 26, 2026 17:20:48
!Correction: S11(Full 1 Port(1)) 
!S1P File: Measurement: S11:
# Hz S  dB   R 50
10000000 -0.053366788 -0.075530708
209950000 -0.024105681 -4.163959
409900000 -0.0405044 -8.3842459
609850000 -0.054451548 -12.154654
809800000 -0.090635665 -16.38126
1009750000 -0.10604876 -20.340435
1209700000 -0.16947947 -24.304743
1409650000 -0.19721614 -28.451227
1609600000 -0.23574628 -32.654442
1809550000 -0.28634259 -35.857101
2009500000 -0.27192879 -38.262516
2209450000 -0.32713893 -42.850582
2409400000 -0.3756699 -46.042133
2609350000 -0.4408156 -50.278267
2809300000 -0.48251763 -53.192596
3009250000 -0.50829166 -56.340816
3209200000 -0.52669674 -58.815601
3409150000 -0.61249512 -62.775394
3609100000 -0.65734965 -66.364197
3809050000 -0.7331059 -69.552643
4009000000 -0.75851232 -71.829002
4208950000 -0.83210427 -75.450943
4408900000 -0.87648356 -78.369003
4608850000 -0.9410888 -81.19532
4808800000 -0.97282898 -84.09227
5008750000 -1.004439 -86.611412
5208700000 -1.0693365 -89.362122
5408650000 -1.1163194 -92.035904
5608600000 -1.1548671 -94.792625
5808550000 -1.1936915 -97.25499
6008500000 -1.2467722 -99.805717
6208450000 -1.2840298 -102.21133
6408400000 -1.3307992 -104.64775
6608350000 -1.3753461 -106.97369
6808300000 -1.4357603 -109.41943
7008250000 -1.4587163 -111.71805
7208200000 -1.496393 -114.05901
7408150000 -1.5361757 -116.36165
7608100000 -1.5616604 -118.40499
7808050000 -1.6046721 -120.58097
8008000000 -1.6414665 -122.69681
8207950000 -1.6581752 -124.80522
8407900000 -1.678363 -126.6416
8607850000 -1.7238623 -128.86452
8807800000 -1.7384781 -130.73755
9007750000 -1.7665803 -132.69087
9207700000 -1.7914374 -134.59993
9407650000 -1.8388382 -136.6115
9607600000 -1.8492352 -138.53239
9807550000 -1.8769934 -140.26189
10007500000 -1.9202372 -142.1673
10207450000 -1.9603193 -144.03833
10407400000 -1.9540328 -145.66699
10607350000 -2.0038972 -147.33582
10807300000 -2.0272262 -149.1478
11007250000 -2.0331297 -150.66628
11207200000 -2.0589006 -152.32275
11407150000 -2.0965064 -154.12311
11607100000 -2.1016874 -155.77341
11807050000 -2.1011987 -157.12944
12007000000 -2.1504567 -158.75528
12206950000 -2.1615951 -160.38586
12406900000 -2.1570859 -161.81386
12606850000 -2.1864629 -163.25876
12806800000 -2.2303164 -164.86749
13006750000 -2.2124188 -166.37892
13206700000 -2.2151024 -167.67743
13406650000 -2.2647884 -169.29114
13606600000 -2.2646325 -169.37045
13806550000 -2.255568 -170.92221
14006500000 -2.3138661 -173.80872
14206450000 -2.3403609 -175.36853
14406400000 -2.3180501 -176.22621
14606350000 -2.3487101 -177.37012
14806300000 -2.3843672 -179.07961
15006250000 -2.3690791 179.57486
15206200000 -2.3396106 178.52499
15406150000 -2.4120419 177.30516
15606100000 -2.4311543 175.63887
15806050000 -2.3849993 174.57349
16006000000 -2.3923283 173.43904
16205950000 -2.4600801 172.14566
16405900000 -2.4266696 170.77548
16605850000 -2.4014797 169.77333
16805800000 -2.4813881 168.51283
17005750000 -2.4535747 167.09557
17205700000 -2.4132144 166.08908
17405650000 -2.4419553 165.08037
17605600000 -2.5332444 163.6711
17805550000 -2.483254 162.34337
18005500000 -2.467726 161.49522
18205450000 -2.539573 160.34566
18405400000 -2.544239 158.98605
18605350000 -2.4769995 157.87347
18805300000 -2.5033767 157.12552
19005250000 -2.5778069 155.72348
19205200000 -2.5118902 154.49658
19405150000 -2.500493 153.56563
19605100000 -2.5617051 152.61314
19805050000 -2.552618 151.24191
20005000000 -2.4873276 150.29404
20204950000 -2.5578861 149.48576
20404900000 -2.5798368 148.23007
20604850000 -2.5187392 146.85298
20804800000 -2.4876447 146.19272
21004750000 -2.6228409 145.34529
21204700000 -2.6041462 143.75525
21404650000 -2.536453 142.74197
21604600000 -2.5617683 142.2579
21804550000 -2.6630363 141.07607
22004500000 -2.6034994 139.72722
22204450000 -2.5849192 139.07312
22404400000 -2.6528826 138.37968
22604350000 -2.6257226 136.88821
22804300000 -2.5973639 135.99393
23004250000 -2.6028256 135.38965
23204200000 -2.6657083 134.30409
23404150000 -2.5887554 132.90865
23604100000 -2.5990462 132.40134
23804050000 -2.6532094 131.64423
24004000000 -2.6439877 130.23405
24203950000 -2.5920148 129.23326
24403900000 -2.6175964 128.90686
24603850000 -2.6962414 127.71751
24803800000 -2.6099379 126.50841
25003750000 -2.6330125 125.87848
25203700000 -2.6507933 125.35702
25403650000 -2.6900671 123.99745
25603600000 -2.6233881 123.02203
25803550000 -2.6429353 122.44027
26003500000 -2.6582372 121.35427
26203450000 -2.641556 120.36308
26403400000 -2.6389644 119.52014
26603350000 -2.6480255 118.78157
26803300000 -2.6980627 117.29879
27003250000 -2.6136088 116.94302
27203200000 -2.6937492 116.27583
27403150000 -2.6843619 115.16003
27603100000 -2.6869788 114.36134
27803050000 -2.6390233 113.89288
28003000000 -2.6688175 113.25607
28202950000 -2.6499994 111.82607
28402900000 -2.6206281 111.32436
28602850000 -2.6361427 110.43703
28802800000 -2.6751621 109.56747
29002750000 -2.6261954 108.28979
29202700000 -2.6436999 108.10745
29402650000 -2.6885278 107.29572
29602600000 -2.6723197 106.16833
29802550000 -2.6857939 105.67741
30002500000 -2.6651223 104.78027
30202450000 -2.6946843 103.98418
30402400000 -2.6228549 103.01561
30602350000 -2.6504962 102.83452
30802300000 -2.6319411 101.61521
31002250000 -2.6100922 100.79321
31202200000 -2.5844724 100.37289
31402150000 -2.6044586 99.824394
31602100000 -2.6814861 98.735443
31802050000 -2.5669496 97.84684
32002000000 -2.598536 97.648178
32201950000 -2.6078286 96.650246
32401900000 -2.6122255 95.459206
32601850000 -2.5666466 95.080383
32801800000 -2.5916185 94.22316
33001750000 -2.5922 93.378395
33201700000 -2.5521381 92.862823
33401650000 -2.5609844 92.054955
33601600000 -2.5562558 91.47226
33801550000 -2.5359681 90.303314
34001500000 -2.4749944 90.162552
34201450000 -2.5493531 89.052071
34401400000 -2.5038068 88.27494
34601350000 -2.4886808 87.578072
34801300000 -2.5113246 87.319511
35001250000 -2.4929771 86.079155
35201200000 -2.4678712 85.439606
35401150000 -2.3979642 84.951256
35601100000 -2.4519463 84.032471
35801050000 -2.5208545 83.240578
36001000000 -2.4182856 82.235703
36200950000 -2.4620454 82.096031
36400900000 -2.4626017 80.901199
36600850000 -2.4532957 80.374916
36800800000 -2.4306703 79.549187
37000750000 -2.4084411 78.911354
37200700000 -2.3982081 78.30867
37400650000 -2.3204088 77.678139
37600600000 -2.4051173 77.174294
37800550000 -2.349406 76.234261
38000500000 -2.3956914 75.402321
38200450000 -2.3163331 75.153091
38400400000 -2.3887722 74.116081
38600350000 -2.297219 73.367668
38800300000 -2.2922297 72.691772
39000250000 -2.3015382 72.080093
39200200000 -2.3273606 71.405624
39400150000 -2.2997549 70.656105
39600100000 -2.1968915 70.129066
39800050000 -2.2431765 69.034332
40000000000 -2.2064073 68.314835
