!Agilent Technologies,N5227A,US51270434,A.10.00.00
!Agilent N5227A: A.10.00.00
!Date: Thursday, February 26, 2026 12:01:23
!Correction: S11(Full 1 Port(1)) 
!S1P File: Measurement: S11:
# Hz S  dB   R 50
10000000 -12.658617 -0.54575557
259950000 -12.561136 -4.1919127
509900000 -12.529636 -8.5335388
759850000 -12.480652 -12.676944
1009800000 -12.399006 -16.747974
1259750000 -12.329913 -20.743362
1509700000 -12.211638 -24.870945
1759650000 -12.090698 -28.734247
2009600000 -11.977292 -32.678822
2259550000 -11.823363 -36.453861
2509500000 -11.685334 -40.022034
2759450000 -11.496111 -43.607105
3009400000 -11.322533 -47.155479
3259350000 -11.144628 -50.47884
3509300000 -10.944941 -53.925575
3759250000 -10.756117 -57.199551
4009200000 -10.5775 -60.424465
4259150000 -10.377286 -63.489258
4509100000 -10.191438 -66.465187
4759050000 -9.9779282 -69.386284
5009000000 -9.788229 -72.158539
5258950000 -9.5992117 -75.019684
5508900000 -9.3838367 -77.735237
5758850000 -9.1983643 -80.288864
6008800000 -9.02279 -82.959312
6258750000 -8.8130322 -85.524269
6508700000 -8.651947 -87.898056
6758650000 -8.4587116 -90.352974
7008600000 -8.2742605 -92.682266
7258550000 -8.1056423 -94.985451
7508500000 -7.9254565 -97.323074
7758450000 -7.7607021 -99.580986
8008400000 -7.5857706 -101.68988
8258350000 -7.4144731 -103.83143
8508300000 -7.2558551 -105.95719
8758250000 -7.0951905 -108.0955
9008200000 -6.931448 -110.09098
9258150000 -6.8010731 -112.19933
9508100000 -6.6495624 -114.13529
9758050000 -6.5152659 -116.07168
10008000000 -6.3807225 -118.04552
10257950000 -6.2496696 -119.98106
10507900000 -6.1173859 -121.87289
10757850000 -5.9828162 -123.73243
11007800000 -5.8605113 -125.57927
11257750000 -5.7646165 -127.43858
11507700000 -5.6245379 -129.19067
11757650000 -5.5061507 -130.93011
12007600000 -5.4100785 -132.75592
12257550000 -5.2872066 -134.52286
12507500000 -5.1926374 -136.26334
12757450000 -5.0985618 -137.95102
13007400000 -4.9969292 -139.59035
13257350000 -4.9006371 -141.32635
13507300000 -4.8021479 -142.92926
13757250000 -4.7140799 -144.65665
14007200000 -4.6355276 -146.35928
14257150000 -4.5362382 -147.85896
14507100000 -4.458415 -149.4877
14757050000 -4.3851247 -151.19481
15007000000 -4.2906337 -152.73668
15256950000 -4.2178841 -154.30643
15506900000 -4.1559339 -156.01816
15756850000 -4.0717707 -157.53351
16006800000 -4.0168748 -159.14732
16256750000 -3.9131083 -160.66464
16506700000 -3.8749058 -162.18193
16756650000 -3.8360708 -163.7009
17006600000 -3.749826 -165.22545
17256550000 -3.7034047 -166.55304
17506500000 -3.6646292 -168.16083
17756450000 -3.5902243 -169.64674
18006400000 -3.5522459 -171.04495
18256350000 -3.5055184 -172.58064
18506300000 -3.4517934 -173.93884
18756250000 -3.4192548 -175.38905
19006200000 -3.3611183 -176.80699
19256150000 -3.3178596 -178.1445
19506100000 -3.29757 -179.60045
19756050000 -3.2309449 179.09608
20006000000 -3.2117333 177.80099
20255950000 -3.1784208 176.25114
20505900000 -3.1092811 175.06105
20755850000 -3.102844 173.71376
21005800000 -3.0904386 172.13869
21255750000 -3.0403605 170.91229
21505700000 -3.0358186 169.63947
21755650000 -2.9874384 168.2005
22005600000 -2.9537518 166.9408
22255550000 -2.9320893 165.54095
22505500000 -2.8924034 164.2061
22755450000 -2.8790848 163.01704
23005400000 -2.8693936 161.51945
23255350000 -2.830514 160.40643
23505300000 -2.8514104 159.14609
23755250000 -2.8183408 157.7097
24005200000 -2.7746241 156.73477
24255150000 -2.813987 155.43567
24505100000 -2.7840822 154.0025
24755050000 -2.7393432 152.87492
25005000000 -2.760972 151.57729
25254950000 -2.7562885 150.42439
25504900000 -2.7433805 149.01381
25754850000 -2.7585704 147.90234
26004800000 -2.6860776 146.8866
26254750000 -2.7511756 145.64954
26504700000 -2.7095554 144.53012
26754650000 -2.6526687 143.30992
27004600000 -2.727227 142.27625
27254550000 -2.6382208 141.00609
27504500000 -2.6519878 139.81305
27754450000 -2.7149029 139.07088
28004400000 -2.6355579 137.58421
28254350000 -2.6320431 136.5999
28504300000 -2.6262848 135.59485
28754250000 -2.5789645 134.05719
29004200000 -2.6298134 133.14453
29254150000 -2.6035101 131.79036
29504100000 -2.5991955 130.47461
29754050000 -2.6684716 129.4194
30004000000 -2.6008103 128.04094
30253950000 -2.6286857 127.44836
30503900000 -2.6776211 126.48601
30753850000 -2.6224384 124.81715
31003800000 -2.6517727 124.17563
31253750000 -2.7419679 123.28921
31503700000 -2.7149169 121.90657
31753650000 -2.7122233 121.52314
32003600000 -2.6959729 120.53668
32253550000 -2.6656477 119.29473
32503500000 -2.6620777 118.20123
32753450000 -2.6786976 116.95303
33003400000 -2.7187276 116.01147
33253350000 -2.6948826 115.2717
33503300000 -2.6656442 113.94192
33753250000 -2.6955709 113.53381
34003200000 -2.6971121 112.52916
34253150000 -2.5950165 111.1802
34503100000 -2.5724587 110.97766
34753050000 -2.6260748 109.53648
35003000000 -2.535331 108.39953
35252950000 -2.4764993 107.45741
35502900000 -2.5133898 106.02131
35752850000 -2.5886421 104.95508
36002800000 -2.5652404 103.88425
36252750000 -2.5424271 102.5886
36502700000 -2.5712464 101.73662
36752650000 -2.6134241 100.3745
37002600000 -2.5784895 99.31282
37252550000 -2.6057849 98.580383
37502500000 -2.5935574 97.40229
37752450000 -2.5918021 96.451683
38002400000 -2.5756025 95.565712
38252350000 -2.5942981 93.729652
38502300000 -2.6308506 93.429131
38752250000 -2.6201963 93.115456
39002200000 -2.6066432 91.619209
39252150000 -2.5837114 90.633789
39502100000 -2.5737381 89.566162
39752050000 -2.6216354 87.823219
40002000000 -2.6521029 87.164734
40251950000 -2.6846149 86.055504
40501900000 -2.6679285 85.562439
40751850000 -2.6618059 84.402168
41001800000 -2.6928723 83.187881
41251750000 -2.6607726 82.227798
41501700000 -2.7295911 81.30278
41751650000 -2.740303 79.976295
42001600000 -2.7003224 79.603462
42251550000 -2.6965303 78.711906
42501500000 -2.7291298 77.429649
42751450000 -2.7247272 76.937386
43001400000 -2.7730818 75.926872
43251350000 -2.7720966 74.765594
43501300000 -2.7632663 73.968391
43751250000 -2.7799084 72.943848
44001200000 -2.7612548 72.096786
44251150000 -2.8083179 71.023254
44501100000 -2.8029232 70.227074
44751050000 -2.7973926 69.391273
45001000000 -2.7878947 69.119476
45250950000 -2.7551556 67.369537
45500900000 -2.7952726 66.81266
45750850000 -2.8353403 65.312454
46000800000 -2.8627019 64.835655
46250750000 -2.8455017 64.481682
46500700000 -2.8491883 63.416756
46750650000 -2.6963091 61.799294
47000600000 -2.8499162 61.379009
47250550000 -2.8429711 60.18784
47500500000 -2.9251857 59.230301
47750450000 -2.9184494 58.918526
48000400000 -2.8922863 57.510056
48250350000 -2.8624773 57.01421
48500300000 -2.9100845 55.398087
48750250000 -2.9689364 54.523743
49000200000 -3.0038388 54.453587
49250150000 -3.0341637 53.634769
49500100000 -2.848218 52.406994
49750050000 -2.9974024 51.235809
50000000000 -2.9934766 49.21384
