!Agilent Technologies,N5227A,US51270434,A.10.00.00
!Agilent N5227A: A.10.00.00
!Date: Thursday, February 26, 2026 11:59:31
!Correction: S11(Full 1 Port(1)) 
!S1P File: Measurement: S11:
# Hz S  dB   R 50
10000000 -14.247754 -0.20466559
259950000 -14.102266 -10.234275
509900000 -13.884185 -20.032097
759850000 -13.550035 -29.270765
1009800000 -13.1247 -37.807896
1259750000 -12.648025 -45.836731
1509700000 -12.110842 -53.158043
1759650000 -11.591964 -59.813137
2009600000 -11.067723 -66.083725
2259550000 -10.546656 -71.680077
2509500000 -10.052723 -76.847641
2759450000 -9.5557041 -81.628044
3009400000 -9.1000404 -86.160355
3259350000 -8.6652336 -90.395302
3509300000 -8.2463045 -94.41069
3759250000 -7.8622284 -98.230713
4009200000 -7.5028782 -101.89027
4259150000 -7.1590834 -105.31789
4509100000 -6.8405652 -108.65822
4759050000 -6.529048 -111.76263
5009000000 -6.2544188 -114.77059
5258950000 -5.9940042 -117.78678
5508900000 -5.7315626 -120.59781
5758850000 -5.5023546 -123.3134
6008800000 -5.2843781 -126.04018
6258750000 -5.0697546 -128.59302
6508700000 -4.8924503 -131.1225
6758650000 -4.7053452 -133.5314
7008600000 -4.5328035 -135.87784
7258550000 -4.3763361 -138.20224
7508500000 -4.2203083 -140.42245
7758450000 -4.0848541 -142.67848
8008400000 -3.9457331 -144.80566
8258350000 -3.8165793 -146.8243
8508300000 -3.7003818 -148.90564
8758250000 -3.5869789 -150.957
9008200000 -3.4772937 -152.84756
9258150000 -3.3892102 -154.85115
9508100000 -3.2957408 -156.72551
9758050000 -3.2173641 -158.58028
10008000000 -3.1339259 -160.41083
10257950000 -3.0559442 -162.17445
10507900000 -2.990638 -163.96375
10757850000 -2.9165728 -165.66287
11007800000 -2.8557284 -167.36075
11257750000 -2.8100829 -169.11649
11507700000 -2.7413104 -170.67633
11757650000 -2.6898506 -172.2426
12007600000 -2.6484718 -173.9243
12257550000 -2.599283 -175.49055
12507500000 -2.5676835 -177.07161
12757450000 -2.5316031 -178.62918
13007400000 -2.5026641 179.90894
13257350000 -2.4689543 178.40958
13507300000 -2.4396932 176.93947
13757250000 -2.409054 175.48906
14007200000 -2.3832784 173.9716
14257150000 -2.3622293 172.65324
14507100000 -2.344444 171.21306
14757050000 -2.322459 169.77505
15007000000 -2.2979956 168.49588
15256950000 -2.2798004 167.17427
15506900000 -2.2656336 165.68027
15756850000 -2.2467391 164.40712
16006800000 -2.2442713 163.01283
16256750000 -2.220387 161.80948
16506700000 -2.2326615 160.50642
16756650000 -2.2335486 159.16666
17006600000 -2.2088065 157.98637
17256550000 -2.2300794 156.78159
17506500000 -2.2233274 155.43674
17756450000 -2.2071154 154.32173
18006400000 -2.2202563 153.09665
18256350000 -2.2182095 151.86307
18506300000 -2.2162275 150.77219
18756250000 -2.233587 149.55173
19006200000 -2.2203279 148.44759
19256150000 -2.2262003 147.32835
19506100000 -2.2426882 146.17191
19756050000 -2.2296307 145.10825
20006000000 -2.2552409 144.0192
20255950000 -2.2512608 142.80508
20505900000 -2.2332473 141.91174
20755850000 -2.2774737 140.7233
21005800000 -2.2827361 139.42223
21255750000 -2.2805974 138.49686
21505700000 -2.3208058 137.37921
21755650000 -2.3022566 136.30356
22005600000 -2.3131206 135.36679
22255550000 -2.3107018 134.25084
22505500000 -2.3043084 133.17709
22755450000 -2.3338144 132.26183
23005400000 -2.3364785 131.056
23255350000 -2.3420489 130.12666
23505300000 -2.3986168 129.06055
23755250000 -2.3838813 128.00008
24005200000 -2.3947315 127.2504
24255150000 -2.4513021 126.13473
24505100000 -2.4313664 125.00133
24755050000 -2.4433391 124.20982
25005000000 -2.4684911 123.09889
25254950000 -2.4867156 122.0789
25504900000 -2.5068882 121.10703
25754850000 -2.5216208 120.17633
26004800000 -2.5238085 119.45584
26254750000 -2.5810487 118.44446
26504700000 -2.5312049 117.54115
26754650000 -2.510366 116.80454
27004600000 -2.5825205 115.85011
27254550000 -2.5453594 114.6971
27504500000 -2.5451765 113.92608
27754450000 -2.6362147 113.02847
28004400000 -2.5823219 112.03799
28254350000 -2.6009433 111.19309
28504300000 -2.6251812 110.28747
28754250000 -2.5850391 109.19652
29004200000 -2.6439469 108.30772
29254150000 -2.6296198 107.24252
29504100000 -2.6552663 106.22978
29754050000 -2.7098262 105.22765
30004000000 -2.6752195 104.08138
30253950000 -2.7108614 103.63194
30503900000 -2.7938039 102.78126
30753850000 -2.7312489 101.65238
31003800000 -2.7617188 101.01799
31253750000 -2.8907039 100.11622
31503700000 -2.8465636 99.23111
31753650000 -2.8903365 98.827644
32003600000 -2.898026 97.966728
32253550000 -2.8766587 97.002769
32503500000 -2.8958385 96.154076
32753450000 -2.8958392 95.122131
33003400000 -2.9420829 94.349419
33253350000 -2.9690602 93.678986
33503300000 -2.9378703 92.668213
33753250000 -2.9850304 92.397301
34003200000 -3.0033879 91.595261
34253150000 -2.9029267 90.598831
34503100000 -2.884733 90.481285
34753050000 -2.9630408 89.192635
35003000000 -2.8575237 88.380707
35252950000 -2.852577 87.586922
35502900000 -2.861778 86.213814
35752850000 -2.9275656 85.342262
36002800000 -2.9170356 84.517464
36252750000 -2.9237168 83.444649
36502700000 -2.9589081 82.678123
36752650000 -2.9864309 81.483063
37002600000 -2.9572644 80.570381
37252550000 -2.9984193 79.973251
37502500000 -3.0036023 78.893883
37752450000 -2.9980459 78.221306
38002400000 -2.9974022 77.448853
38252350000 -2.9894533 75.648918
38502300000 -3.0480525 75.449013
38752250000 -3.0787954 75.190849
39002200000 -3.0656891 73.968315
39252150000 -3.0605526 73.196228
39502100000 -3.0825827 72.057892
39752050000 -3.0901296 70.859459
40002000000 -3.1449866 70.208038
40251950000 -3.1886063 69.275269
40501900000 -3.1878822 68.712456
40751850000 -3.1798701 67.963699
41001800000 -3.2302496 66.970085
41251750000 -3.1639619 66.213402
41501700000 -3.2789373 65.459534
41751650000 -3.2785735 64.253677
42001600000 -3.2485359 64.055466
42251550000 -3.2662714 63.284107
42501500000 -3.2373128 62.192711
42751450000 -3.2949104 61.800186
43001400000 -3.3368545 61.034512
43251350000 -3.3051083 59.910027
43501300000 -3.3453093 59.457195
43751250000 -3.3650706 58.593521
44001200000 -3.3504441 57.776947
44251150000 -3.3902555 56.737396
44501100000 -3.4068732 56.168083
44751050000 -3.4059341 55.568642
45001000000 -3.4001856 55.072441
45250950000 -3.3849299 53.920704
45500900000 -3.4400978 53.52644
45750850000 -3.4389544 52.246624
46000800000 -3.4944546 51.623497
46250750000 -3.4596462 51.213196
46500700000 -3.4606388 50.494701
46750650000 -3.3296218 49.580444
47000600000 -3.4843466 48.76564
47250550000 -3.459296 47.645126
47500500000 -3.5321288 47.015228
47750450000 -3.5657198 46.724915
48000400000 -3.501992 45.561272
48250350000 -3.4918981 45.101879
48500300000 -3.5184176 43.772434
48750250000 -3.5948145 42.95586
49000200000 -3.6104198 42.772602
49250150000 -3.6356294 42.106583
49500100000 -3.4771879 41.183014
49750050000 -3.6436031 40.046635
50000000000 -3.5517285 38.236752
