!Agilent Technologies,N5227A,US51270434,A.10.00.00
!Agilent N5227A: A.10.00.00
!Date: Thursday, February 26, 2026 12:01:08
!Correction: S11(Full 1 Port(1)) 
!S1P File: Measurement: S11:
# Hz S  dB   R 50
10000000 -13.094976 -0.53406936
259950000 -13.038159 -4.604507
509900000 -13.010592 -9.3461332
759850000 -12.945948 -13.933009
1009800000 -12.833963 -18.281729
1259750000 -12.744087 -22.701212
1509700000 -12.596643 -27.129658
1759650000 -12.452834 -31.324245
2009600000 -12.298758 -35.569553
2259550000 -12.123242 -39.58091
2509500000 -11.947872 -43.388496
2759450000 -11.718998 -47.173439
3009400000 -11.518752 -50.843445
3259350000 -11.310461 -54.37841
3509300000 -11.070706 -57.883545
3759250000 -10.859735 -61.276249
4009200000 -10.644257 -64.620308
4259150000 -10.412259 -67.776634
4509100000 -10.195253 -70.832428
4759050000 -9.9603472 -73.772072
5009000000 -9.7493572 -76.569138
5258950000 -9.5408287 -79.460968
5508900000 -9.3071976 -82.207138
5758850000 -9.0964127 -84.786636
6008800000 -8.9043617 -87.519707
6258750000 -8.6839161 -90.028328
6508700000 -8.5018654 -92.424789
6758650000 -8.2922754 -94.874283
7008600000 -8.0972624 -97.20266
7258550000 -7.9239197 -99.519081
7508500000 -7.724627 -101.841
7758450000 -7.554275 -104.09229
8008400000 -7.3669767 -106.2224
8258350000 -7.1906877 -108.31878
8508300000 -7.0286016 -110.4461
8758250000 -6.8563957 -112.57331
9008200000 -6.6876397 -114.54803
9258150000 -6.5605083 -116.68465
9508100000 -6.4005766 -118.61817
9758050000 -6.2675314 -120.53149
10008000000 -6.1256118 -122.48939
10257950000 -5.9835281 -124.42287
10507900000 -5.851861 -126.30907
10757850000 -5.7142763 -128.10686
11007800000 -5.5898829 -129.95125
11257750000 -5.4937406 -131.84605
11507700000 -5.3535056 -133.54248
11757650000 -5.2359366 -135.30139
12007600000 -5.1448407 -137.1449
12257550000 -5.0200081 -138.85921
12507500000 -4.9231906 -140.58115
12757450000 -4.8356934 -142.31296
13007400000 -4.7322083 -143.92787
13257350000 -4.6400733 -145.61362
13507300000 -4.5399227 -147.25766
13757250000 -4.4526539 -148.96037
14007200000 -4.3774805 -150.65988
14257150000 -4.2785487 -152.16817
14507100000 -4.2053995 -153.77635
14757050000 -4.1413002 -155.4612
15007000000 -4.0391607 -156.97189
15256950000 -3.9739902 -158.52942
15506900000 -3.9123101 -160.25238
15756850000 -3.8310978 -161.75725
16006800000 -3.7824628 -163.33853
16256750000 -3.6847692 -164.80103
16506700000 -3.6483963 -166.3214
16756650000 -3.6136041 -167.87106
17006600000 -3.5363672 -169.36418
17256550000 -3.4898505 -170.69518
17506500000 -3.4528112 -172.3024
17756450000 -3.3830731 -173.73209
18006400000 -3.3502939 -175.1338
18256350000 -3.3094041 -176.64998
18506300000 -3.2566891 -177.97725
18756250000 -3.2271802 -179.4297
19006200000 -3.172816 179.20328
19256150000 -3.1338935 177.83469
19506100000 -3.1148062 176.4407
19756050000 -3.0578284 175.12512
20006000000 -3.0429068 173.87015
20255950000 -3.0124612 172.36282
20505900000 -2.9416053 171.14919
20755850000 -2.9421892 169.82541
21005800000 -2.9372435 168.22334
21255750000 -2.8871953 167.04124
21505700000 -2.8908956 165.79218
21755650000 -2.8463013 164.36838
22005600000 -2.8146503 163.18176
22255550000 -2.7975359 161.83382
22505500000 -2.7641261 160.45052
22755450000 -2.7490575 159.28099
23005400000 -2.7423487 157.80896
23255350000 -2.7023351 156.69414
23505300000 -2.7345631 155.48915
23755250000 -2.7065713 154.0838
24005200000 -2.6629443 153.11984
24255150000 -2.7057788 151.8461
24505100000 -2.6737719 150.41231
24755050000 -2.6388276 149.30754
25005000000 -2.6698284 148.04044
25254950000 -2.662951 146.91658
25504900000 -2.6488225 145.51585
25754850000 -2.6664124 144.40564
26004800000 -2.6031969 143.42924
26254750000 -2.6753807 142.21175
26504700000 -2.6347094 141.10571
26754650000 -2.5705943 139.92134
27004600000 -2.6484249 138.91022
27254550000 -2.5739527 137.66745
27504500000 -2.5880976 136.52635
27754450000 -2.6436179 135.81282
28004400000 -2.562099 134.3792
28254350000 -2.5736587 133.40074
28504300000 -2.5740047 132.40451
28754250000 -2.5308022 130.85808
29004200000 -2.5772977 129.9512
29254150000 -2.5556676 128.63251
29504100000 -2.5583932 127.31725
29754050000 -2.6103535 126.28195
30004000000 -2.5567091 124.95394
30253950000 -2.5568376 124.36353
30503900000 -2.6336429 123.37083
30753850000 -2.5774152 121.86988
31003800000 -2.5981176 121.27224
31253750000 -2.706521 120.34255
31503700000 -2.6829252 119.02613
31753650000 -2.6705713 118.54028
32003600000 -2.6778207 117.68523
32253550000 -2.6449888 116.40794
32503500000 -2.6522992 115.30948
32753450000 -2.6564569 114.1122
33003400000 -2.6966517 113.14442
33253350000 -2.6971691 112.41226
33503300000 -2.651515 111.17369
33753250000 -2.7028587 110.69963
34003200000 -2.6734188 109.72289
34253150000 -2.5866954 108.38804
34503100000 -2.5476773 108.26508
34753050000 -2.6301887 106.87633
35003000000 -2.5303843 105.80243
35252950000 -2.4809487 104.84415
35502900000 -2.5162859 103.44121
35752850000 -2.5962443 102.29153
36002800000 -2.5671134 101.33899
36252750000 -2.5325117 100.05889
36502700000 -2.5867596 99.184837
36752650000 -2.6269143 97.952621
37002600000 -2.5778639 96.816147
37252550000 -2.6235263 96.180267
37502500000 -2.5905988 94.929138
37752450000 -2.5987337 94.040855
38002400000 -2.5947931 93.320786
38252350000 -2.6079626 91.392929
38502300000 -2.6419003 90.898041
38752250000 -2.6143866 90.684151
39002200000 -2.645154 89.286682
39252150000 -2.5975745 88.269409
39502100000 -2.6054688 87.029297
39752050000 -2.6344974 85.595421
40002000000 -2.6823683 84.83754
40251950000 -2.7012072 83.787613
40501900000 -2.6749036 83.10746
40751850000 -2.7016468 82.166245
41001800000 -2.7171235 80.940186
41251750000 -2.7040503 79.961342
41501700000 -2.7677269 79.168755
41751650000 -2.7839854 78.024117
42001600000 -2.7318423 77.398422
42251550000 -2.7228715 76.776062
42501500000 -2.7666972 75.352959
42751450000 -2.7592139 74.790115
43001400000 -2.8058798 73.880318
43251350000 -2.8073111 72.664101
43501300000 -2.8095193 72.020378
43751250000 -2.8151588 70.970024
44001200000 -2.8058994 70.301895
44251150000 -2.8573129 69.005905
44501100000 -2.8572724 68.227585
44751050000 -2.8541956 67.680305
45001000000 -2.8207393 67.012383
45250950000 -2.8185301 65.373886
45500900000 -2.8613701 65.067268
45750850000 -2.8859828 63.568783
46000800000 -2.8862453 62.712952
46250750000 -2.8871233 62.696033
46500700000 -2.8954144 61.453304
46750650000 -2.7637868 60.446007
47000600000 -2.88977 59.557175
47250550000 -2.894352 58.454071
47500500000 -2.976223 57.642815
47750450000 -2.9682748 57.185658
48000400000 -2.9299045 55.900105
48250350000 -2.9318585 55.417393
48500300000 -2.9669724 53.797398
48750250000 -3.001606 53.050858
49000200000 -3.0573714 52.992714
49250150000 -3.0456488 52.054302
49500100000 -2.8838768 51.046223
49750050000 -3.0439599 49.773819
50000000000 -2.9697716 47.916195
