!Agilent Technologies,N5227A,US51270434,A.10.00.00
!Agilent N5227A: A.10.00.00
!Date: Thursday, February 26, 2026 12:00:48
!Correction: S11(Full 1 Port(1)) 
!S1P File: Measurement: S11:
# Hz S  dB   R 50
10000000 -13.404576 -0.79893273
259950000 -13.402634 -5.1435061
509900000 -13.357923 -10.446552
759850000 -13.267043 -15.432897
1009800000 -13.147265 -20.356789
1259750000 -13.018269 -25.162533
1509700000 -12.842628 -30.04755
1759650000 -12.662584 -34.546333
2009600000 -12.466496 -39.146683
2259550000 -12.240054 -43.394215
2509500000 -12.028313 -47.526402
2759450000 -11.766512 -51.478058
3009400000 -11.521391 -55.347435
3259350000 -11.274788 -59.037422
3509300000 -11.003571 -62.647015
3759250000 -10.747772 -66.130234
4009200000 -10.499945 -69.571434
4259150000 -10.238691 -72.814003
4509100000 -9.9959173 -75.925461
4759050000 -9.741004 -78.917145
5009000000 -9.5021973 -81.763847
5258950000 -9.271553 -84.729195
5508900000 -9.0181484 -87.457924
5758850000 -8.7990618 -90.104492
6008800000 -8.5846558 -92.773506
6258750000 -8.3473549 -95.363777
6508700000 -8.1543093 -97.780067
6758650000 -7.9350066 -100.20193
7008600000 -7.7344146 -102.53767
7258550000 -7.5415092 -104.87148
7508500000 -7.3396411 -107.17014
7758450000 -7.1629243 -109.44516
8008400000 -6.9715028 -111.55192
8258350000 -6.790257 -113.68774
8508300000 -6.6217365 -115.78126
8758250000 -6.4522982 -117.91344
9008200000 -6.2827516 -119.8838
9258150000 -6.148098 -122.00252
9508100000 -5.9861774 -123.93527
9758050000 -5.8572006 -125.87387
10008000000 -5.7091494 -127.79467
10257950000 -5.5775089 -129.71193
10507900000 -5.4508595 -131.60669
10757850000 -5.3107557 -133.43117
11007800000 -5.1888666 -135.25404
11257750000 -5.0911942 -137.14081
11507700000 -4.9580736 -138.8345
11757650000 -4.8432884 -140.60223
12007600000 -4.7551451 -142.38696
12257550000 -4.632865 -144.14458
12507500000 -4.5412145 -145.85733
12757450000 -4.4556108 -147.55942
13007400000 -4.3624773 -149.19707
13257350000 -4.2706914 -150.88095
13507300000 -4.1772108 -152.52298
13757250000 -4.1000047 -154.15544
14007200000 -4.023807 -155.85831
14257150000 -3.9400454 -157.37897
14507100000 -3.872242 -158.98149
14757050000 -3.8004155 -160.63875
15007000000 -3.7167661 -162.15274
15256950000 -3.6579711 -163.71867
15506900000 -3.5930479 -165.3614
15756850000 -3.5250905 -166.84505
16006800000 -3.4715698 -168.47369
16256750000 -3.3914444 -169.8981
16506700000 -3.3572435 -171.4101
16756650000 -3.3275647 -172.92625
17006600000 -3.2504609 -174.36145
17256550000 -3.2202044 -175.73933
17506500000 -3.1852086 -177.30554
17756450000 -3.1237235 -178.68959
18006400000 -3.0989978 179.91446
18256350000 -3.058898 178.43599
18506300000 -3.0157542 177.1187
18756250000 -2.9909945 175.69081
19006200000 -2.947319 174.32892
19256150000 -2.9123013 173.02516
19506100000 -2.8962061 171.62361
19756050000 -2.8459034 170.36642
20006000000 -2.8397028 169.07292
20255950000 -2.8151133 167.58856
20505900000 -2.7522833 166.43285
20755850000 -2.7657235 165.11858
21005800000 -2.7523625 163.57011
21255750000 -2.7144973 162.42731
21505700000 -2.7215209 161.1488
21755650000 -2.6833403 159.81421
22005600000 -2.6592917 158.62117
22255550000 -2.6336102 157.27911
22505500000 -2.612505 155.96126
22755450000 -2.6041946 154.84357
23005400000 -2.603466 153.41316
23255350000 -2.5733514 152.31137
23505300000 -2.6053467 151.08401
23755250000 -2.5823474 149.73802
24005200000 -2.5472469 148.82249
24255150000 -2.5906377 147.53062
24505100000 -2.563987 146.14192
24755050000 -2.5327251 145.11313
25005000000 -2.5640836 143.80832
25254950000 -2.5660594 142.73116
25504900000 -2.5539932 141.34755
25754850000 -2.5785139 140.30313
26004800000 -2.5246155 139.35074
26254750000 -2.5921221 138.0984
26504700000 -2.552443 137.10019
26754650000 -2.4969552 135.94133
27004600000 -2.585573 134.94081
27254550000 -2.4998474 133.76871
27504500000 -2.526741 132.55069
27754450000 -2.5998931 131.85602
28004400000 -2.5112395 130.46922
28254350000 -2.5324945 129.53027
28504300000 -2.5188136 128.62543
28754250000 -2.4744122 127.17047
29004200000 -2.5416162 126.23637
29254150000 -2.5075982 124.85624
29504100000 -2.5143635 123.63077
29754050000 -2.5704982 122.66882
30004000000 -2.5234718 121.32594
30253950000 -2.5499239 120.85754
30503900000 -2.6031659 119.81657
30753850000 -2.5506768 118.3607
31003800000 -2.5798731 117.68355
31253750000 -2.691056 116.83669
31503700000 -2.6672461 115.46996
31753650000 -2.6653869 115.08922
32003600000 -2.6535666 114.15367
32253550000 -2.6368456 112.99307
32503500000 -2.6448643 111.90445
32753450000 -2.6511216 110.69254
33003400000 -2.6979246 109.76659
33253350000 -2.6936502 109.16023
33503300000 -2.649322 107.91904
33753250000 -2.7051899 107.49834
34003200000 -2.6892104 106.57381
34253150000 -2.5944617 105.19395
34503100000 -2.570627 105.14933
34753050000 -2.6327591 103.78286
35003000000 -2.5337753 102.66919
35252950000 -2.5039606 101.94218
35502900000 -2.5336854 100.44647
35752850000 -2.6043904 99.289467
36002800000 -2.5842168 98.298134
36252750000 -2.5647817 97.096497
36502700000 -2.6165202 96.220131
36752650000 -2.6448576 94.972992
37002600000 -2.6029806 93.904053
37252550000 -2.6549752 93.264374
37502500000 -2.6234014 92.057953
37752450000 -2.6239474 91.269157
38002400000 -2.6001413 90.2966
38252350000 -2.6414659 88.670631
38502300000 -2.6778033 88.26564
38752250000 -2.6650872 87.89016
39002200000 -2.6640112 86.350227
39252150000 -2.6316783 85.635384
39502100000 -2.6194839 84.469261
39752050000 -2.6723678 82.970192
40002000000 -2.7202787 82.19873
40251950000 -2.7668126 81.076637
40501900000 -2.7496488 80.573151
40751850000 -2.7344627 79.554718
41001800000 -2.7734447 78.415924
41251750000 -2.7291906 77.476585
41501700000 -2.8067262 76.719414
41751650000 -2.8186629 75.399475
42001600000 -2.7984757 75.000938
42251550000 -2.7936745 74.187889
42501500000 -2.8362134 72.90892
42751450000 -2.820261 72.384323
43001400000 -2.8841307 71.577286
43251350000 -2.8701544 70.587517
43501300000 -2.8711801 69.735191
43751250000 -2.8759019 68.787277
44001200000 -2.8576293 68.017471
44251150000 -2.9035842 66.762146
44501100000 -2.9162834 66.012825
44751050000 -2.9355719 65.262398
45001000000 -2.9005926 64.902748
45250950000 -2.8849356 63.476036
45500900000 -2.9289825 62.994705
45750850000 -2.9837844 61.333481
46000800000 -2.9799135 61.00201
46250750000 -2.960834 60.598469
46500700000 -2.9512143 59.762074
46750650000 -2.8505416 57.992786
47000600000 -2.9764264 57.686535
47250550000 -2.9815156 56.536114
47500500000 -3.0741746 55.485817
47750450000 -3.0485792 55.273819
48000400000 -3.0068867 53.981575
48250350000 -2.9956188 53.446899
48500300000 -3.0362194 52.007427
48750250000 -3.0851312 51.263088
49000200000 -3.0938959 50.94286
49250150000 -3.1305723 50.238075
49500100000 -2.9581504 49.118961
49750050000 -3.1436939 48.046883
50000000000 -3.0681288 46.045502
