!Agilent Technologies,N5227A,US51270434,A.10.00.00
!Agilent N5227A: A.10.00.00
!Date: Thursday, February 26, 2026 12:00:09
!Correction: S11(Full 1 Port(1)) 
!S1P File: Measurement: S11:
# Hz S  dB   R 50
10000000 -13.698751 -0.25767618
259950000 -13.690763 -6.0058842
509900000 -13.626942 -11.957033
759850000 -13.50976 -17.635334
1009800000 -13.345911 -23.296368
1259750000 -13.175303 -28.703094
1509700000 -12.939978 -34.095722
1759650000 -12.704103 -39.076748
2009600000 -12.449388 -44.07457
2259550000 -12.168532 -48.731201
2509500000 -11.894672 -53.125767
2759450000 -11.57798 -57.334637
3009400000 -11.284855 -61.371525
3259350000 -10.977534 -65.252548
3509300000 -10.670864 -68.999725
3759250000 -10.377692 -72.663681
4009200000 -10.084678 -76.163177
4259150000 -9.7997704 -79.459427
4509100000 -9.5228643 -82.648903
4759050000 -9.234622 -85.685417
5009000000 -8.9830599 -88.600487
5258950000 -8.7276516 -91.585892
5508900000 -8.4592772 -94.344643
5758850000 -8.2229109 -96.976685
6008800000 -7.9896483 -99.726051
6258750000 -7.7446032 -102.2706
6508700000 -7.544045 -104.7305
6758650000 -7.3137631 -107.16364
7008600000 -7.1080899 -109.52377
7258550000 -6.9147182 -111.8409
7508500000 -6.7101545 -114.14325
7758450000 -6.5359111 -116.42951
8008400000 -6.3415012 -118.56464
8258350000 -6.1588106 -120.65171
8508300000 -5.996161 -122.75992
8758250000 -5.8285718 -124.86864
9008200000 -5.6621642 -126.86131
9258150000 -5.5311189 -128.99059
9508100000 -5.3740959 -130.92558
9758050000 -5.2421956 -132.86079
10008000000 -5.1095605 -134.80188
10257950000 -4.980906 -136.69612
10507900000 -4.8623705 -138.56792
10757850000 -4.7351403 -140.38455
11007800000 -4.6201015 -142.20013
11257750000 -4.5235944 -144.0975
11507700000 -4.40626 -145.79115
11757650000 -4.2953572 -147.52516
12007600000 -4.2120562 -149.33745
12257550000 -4.1026583 -151.04161
12507500000 -4.0256281 -152.74635
12757450000 -3.9433045 -154.47997
13007400000 -3.8587604 -156.09866
13257350000 -3.7809448 -157.71065
13507300000 -3.6982353 -159.35712
13757250000 -3.6263134 -161.00169
14007200000 -3.5641351 -162.6805
14257150000 -3.4910789 -164.16559
14507100000 -3.4321182 -165.72815
14757050000 -3.3753655 -167.37001
15007000000 -3.3039098 -168.85699
15256950000 -3.2518249 -170.39009
15506900000 -3.1970217 -172.0648
15756850000 -3.1380503 -173.49435
16006800000 -3.1022599 -175.0708
16256750000 -3.0243256 -176.50337
16506700000 -3.0042851 -177.95764
16756650000 -2.9820983 -179.47017
17006600000 -2.9156201 179.16512
17256550000 -2.8923459 177.79726
17506500000 -2.8677082 176.27563
17756450000 -2.8197529 174.90866
18006400000 -2.7989202 173.54881
18256350000 -2.7708189 172.09753
18506300000 -2.7394412 170.83339
18756250000 -2.723846 169.43398
19006200000 -2.6890118 168.11867
19256150000 -2.6608775 166.82141
19506100000 -2.6570055 165.47226
19756050000 -2.6097977 164.2442
20006000000 -2.6116433 163.01602
20255950000 -2.5905807 161.562
20505900000 -2.5492499 160.50836
20755850000 -2.5626802 159.16479
21005800000 -2.5642338 157.66447
21255750000 -2.529362 156.55455
21505700000 -2.5449274 155.31606
21755650000 -2.5084965 153.9848
22005600000 -2.5025153 152.88586
22255550000 -2.4814284 151.57161
22505500000 -2.4613831 150.31451
22755450000 -2.4646311 149.22911
23005400000 -2.4644494 147.84412
23255350000 -2.4435818 146.81366
23505300000 -2.4775858 145.53697
23755250000 -2.4565687 144.28307
24005200000 -2.4364278 143.43958
24255150000 -2.4868948 142.15137
24505100000 -2.4622436 140.82484
24755050000 -2.4454327 139.85046
25005000000 -2.4766963 138.57104
25254950000 -2.4797549 137.48544
25504900000 -2.4743619 136.2357
25754850000 -2.5001853 135.17339
26004800000 -2.4621434 134.31955
26254750000 -2.5248766 133.1255
26504700000 -2.4838016 132.07025
26754650000 -2.4410782 131.05783
27004600000 -2.5301826 130.04044
27254550000 -2.4618087 128.89462
27504500000 -2.4727454 127.77747
27754450000 -2.540381 126.93085
28004400000 -2.4674525 125.77409
28254350000 -2.4928989 124.83204
28504300000 -2.499392 123.91428
28754250000 -2.4529035 122.52946
29004200000 -2.5147698 121.5908
29254150000 -2.4783618 120.34162
29504100000 -2.4902999 119.13649
29754050000 -2.5569127 118.12344
30004000000 -2.5104899 116.86425
30253950000 -2.5368178 116.35114
30503900000 -2.6200991 115.38437
30753850000 -2.5407872 114.0252
31003800000 -2.5784495 113.27552
31253750000 -2.680434 112.4602
31503700000 -2.6488261 111.18476
31753650000 -2.6835017 110.83994
32003600000 -2.6586225 109.84458
32253550000 -2.6551638 108.6722
32503500000 -2.6646106 107.80926
32753450000 -2.6630561 106.63585
33003400000 -2.7099175 105.75539
33253350000 -2.7076268 105.08517
33503300000 -2.6847761 103.93986
33753250000 -2.7295792 103.59718
34003200000 -2.7295015 102.57446
34253150000 -2.6376157 101.34688
34503100000 -2.6245222 101.26235
34753050000 -2.6733477 99.914459
35003000000 -2.5828602 98.92202
35252950000 -2.5336115 98.018982
35502900000 -2.5963049 96.835381
35752850000 -2.6476319 95.642609
36002800000 -2.6357391 94.643074
36252750000 -2.626595 93.466507
36502700000 -2.6649985 92.686729
36752650000 -2.7063591 91.349861
37002600000 -2.6578526 90.35511
37252550000 -2.7029867 89.718361
37502500000 -2.680074 88.498947
37752450000 -2.6851547 87.760971
38002400000 -2.6968963 86.964699
38252350000 -2.6893082 85.154572
38502300000 -2.759618 84.953712
38752250000 -2.7352803 84.546135
39002200000 -2.7503378 83.165314
39252150000 -2.7251859 82.307175
39502100000 -2.7473295 81.254723
39752050000 -2.7628798 79.787186
40002000000 -2.7975669 79.006706
40251950000 -2.8374076 77.945488
40501900000 -2.8239865 77.304146
40751850000 -2.8190689 76.474571
41001800000 -2.8684173 75.396675
41251750000 -2.8387284 74.485077
41501700000 -2.9013143 73.698509
41751650000 -2.928293 72.442657
42001600000 -2.9160249 72.071724
42251550000 -2.8941889 71.340141
42501500000 -2.9027708 70.064301
42751450000 -2.9069185 69.542572
43001400000 -2.9382384 68.730019
43251350000 -2.9814939 67.559464
43501300000 -2.9700942 67.120514
43751250000 -2.991348 65.893593
44001200000 -2.9635811 65.38604
44251150000 -3.0025892 64.073364
44501100000 -2.9992912 63.311565
44751050000 -3.039767 62.836906
45001000000 -3.0353549 62.341686
45250950000 -2.9928634 60.864391
45500900000 -3.0470214 60.527103
45750850000 -3.0860467 58.917942
46000800000 -3.0660653 58.348873
46250750000 -3.0620866 58.181252
46500700000 -3.0690739 57.2388
46750650000 -2.965034 56.096821
47000600000 -3.0949061 55.42157
47250550000 -3.0789065 54.199581
47500500000 -3.1771157 53.177483
47750450000 -3.1620483 52.970516
48000400000 -3.1075871 51.769924
48250350000 -3.0971425 51.356327
48500300000 -3.1438346 49.890453
48750250000 -3.1899283 48.937485
49000200000 -3.2783842 48.725052
49250150000 -3.2392442 48.193611
49500100000 -3.0822496 46.883213
49750050000 -3.2567105 45.938984
50000000000 -3.149379 44.18536
