!Agilent Technologies,N5227A,US51270434,A.10.00.00
!Agilent N5227A: A.10.00.00
!Date: Thursday, February 26, 2026 11:59:53
!Correction: S11(Full 1 Port(1)) 
!S1P File: Measurement: S11:
# Hz S  dB   R 50
10000000 -13.997346 -0.28738362
259950000 -13.908176 -7.3752809
509900000 -13.788328 -14.549973
759850000 -13.62559 -21.480736
1009800000 -13.373844 -28.076687
1259750000 -13.109374 -34.533405
1509700000 -12.785328 -40.625217
1759650000 -12.453764 -46.354683
2009600000 -12.098271 -51.922894
2259550000 -11.733799 -56.979336
2509500000 -11.371743 -61.781712
2759450000 -10.97646 -66.269112
3009400000 -10.615645 -70.620331
3259350000 -10.244855 -74.637108
3509300000 -9.8822594 -78.551926
3759250000 -9.5351725 -82.289711
4009200000 -9.2033606 -85.898911
4259150000 -8.8845997 -89.258064
4509100000 -8.5776367 -92.518661
4759050000 -8.2706404 -95.622459
5009000000 -7.9888444 -98.590828
5258950000 -7.7183461 -101.60191
5508900000 -7.4389105 -104.39134
5758850000 -7.1949267 -107.0734
6008800000 -6.9519348 -109.81525
6258750000 -6.7116604 -112.40123
6508700000 -6.5067024 -114.90124
6758650000 -6.2843919 -117.33742
7008600000 -6.0811939 -119.69022
7258550000 -5.8955808 -122.05194
7508500000 -5.7021241 -124.32639
7758450000 -5.5341053 -126.60873
8008400000 -5.3524013 -128.77382
8258350000 -5.1812301 -130.86702
8508300000 -5.0348516 -132.98849
8758250000 -4.8770089 -135.08972
9008200000 -4.7268777 -137.08325
9258150000 -4.6078849 -139.16875
9508100000 -4.4720979 -141.10695
9758050000 -4.3575702 -143.04416
10008000000 -4.2395887 -144.98175
10257950000 -4.1311011 -146.85419
10507900000 -4.0245786 -148.71706
10757850000 -3.9151471 -150.51297
11007800000 -3.8168995 -152.30354
11257750000 -3.7400966 -154.13979
11507700000 -3.6376226 -155.8392
11757650000 -3.5525215 -157.52437
12007600000 -3.4789524 -159.3036
12257550000 -3.3979156 -160.97134
12507500000 -3.336822 -162.66467
12757450000 -3.2733748 -164.34155
13007400000 -3.2062774 -165.90948
13257350000 -3.150075 -167.52968
13507300000 -3.0857759 -169.099
13757250000 -3.0304837 -170.70343
14007200000 -2.9820118 -172.33971
14257150000 -2.9304917 -173.81197
14507100000 -2.8871119 -175.33241
14757050000 -2.8469806 -176.90067
15007000000 -2.7880619 -178.32942
15256950000 -2.7524986 -179.79054
15506900000 -2.7168245 178.60118
15756850000 -2.677614 177.22932
16006800000 -2.654856 175.69128
16256750000 -2.5998592 174.36287
16506700000 -2.5872157 172.94585
16756650000 -2.580533 171.47928
17006600000 -2.5312374 170.14934
17256550000 -2.5290391 168.88292
17506500000 -2.5148909 167.3873
17756450000 -2.4793777 166.11958
18006400000 -2.4754946 164.79637
18256350000 -2.4584339 163.4447
18506300000 -2.4347949 162.22957
18756250000 -2.4392757 160.88611
19006200000 -2.4095278 159.64398
19256150000 -2.3939016 158.41031
19506100000 -2.4038727 157.13831
19756050000 -2.3696022 155.9767
20006000000 -2.38676 154.77414
20255950000 -2.3762536 153.40982
20505900000 -2.3403094 152.3808
20755850000 -2.375386 151.11424
21005800000 -2.3721039 149.69479
21255750000 -2.3563299 148.6694
21505700000 -2.3800268 147.45737
21755650000 -2.354774 146.30067
22005600000 -2.3554647 145.20142
22255550000 -2.3453968 144.02969
22505500000 -2.3330889 142.80321
22755450000 -2.3492699 141.77498
23005400000 -2.3526332 140.44241
23255350000 -2.3445182 139.46826
23505300000 -2.3844683 138.3091
23755250000 -2.3705513 137.08139
24005200000 -2.3713019 136.32083
24255150000 -2.4184625 135.07655
24505100000 -2.3990309 133.8092
24755050000 -2.393589 132.92586
25005000000 -2.4221337 131.70747
25254950000 -2.433605 130.67271
25504900000 -2.4381921 129.50755
25754850000 -2.4582603 128.48996
26004800000 -2.4430478 127.7284
26254750000 -2.5034425 126.5742
26504700000 -2.4641092 125.55808
26754650000 -2.4242611 124.61443
27004600000 -2.509114 123.72939
27254550000 -2.4542575 122.5815
27504500000 -2.4662476 121.60452
27754450000 -2.5526743 120.73996
28004400000 -2.4870429 119.62425
28254350000 -2.5025699 118.75348
28504300000 -2.5185132 117.76015
28754250000 -2.4678915 116.59996
29004200000 -2.5371752 115.63651
29254150000 -2.5138338 114.47585
29504100000 -2.5237367 113.34584
29754050000 -2.5851359 112.27869
30004000000 -2.5494301 111.11259
30253950000 -2.5855255 110.65739
30503900000 -2.6549635 109.72093
30753850000 -2.599206 108.47562
31003800000 -2.6157401 107.90607
31253750000 -2.7534387 107.02332
31503700000 -2.7161119 105.85717
31753650000 -2.7418833 105.46738
32003600000 -2.7352755 104.61997
32253550000 -2.7250917 103.51776
32503500000 -2.7453225 102.56882
32753450000 -2.7559266 101.46668
33003400000 -2.7770936 100.6207
33253350000 -2.8007555 99.978523
33503300000 -2.7649286 98.851425
33753250000 -2.812618 98.505928
34003200000 -2.8121779 97.696877
34253150000 -2.7065337 96.468147
34503100000 -2.7168477 96.487396
34753050000 -2.780968 95.133987
35003000000 -2.6753597 94.191071
35252950000 -2.6624043 93.256805
35502900000 -2.6897631 91.965385
35752850000 -2.7552047 91.061531
36002800000 -2.7496498 90.036987
36252750000 -2.7243102 88.973198
36502700000 -2.7640412 88.110687
36752650000 -2.7948537 86.88636
37002600000 -2.7542369 85.96286
37252550000 -2.8202724 85.401749
37502500000 -2.7865605 84.226021
37752450000 -2.8118477 83.519119
38002400000 -2.8033416 82.7379
38252350000 -2.811857 80.93351
38502300000 -2.8577895 80.485077
38752250000 -2.8637908 80.220573
39002200000 -2.895153 78.929329
39252150000 -2.839746 78.311905
39502100000 -2.8434291 76.937355
39752050000 -2.8694789 75.600937
40002000000 -2.9331248 74.957886
40251950000 -2.9813478 73.967545
40501900000 -2.9745257 73.400993
40751850000 -2.9600668 72.600861
41001800000 -2.9951317 71.504448
41251750000 -2.9624462 70.694771
41501700000 -3.0615702 69.999886
41751650000 -3.0587864 68.699928
42001600000 -3.035651 68.446228
42251550000 -3.0453203 67.591911
42501500000 -3.0610247 66.605003
42751450000 -3.0346854 65.973282
43001400000 -3.1059723 65.203934
43251350000 -3.115696 64.15686
43501300000 -3.1302683 63.567894
43751250000 -3.1428993 62.449268
44001200000 -3.1205952 61.808239
44251150000 -3.1642118 60.60323
44501100000 -3.1633859 60.074371
44751050000 -3.2002316 59.512218
45001000000 -3.1928537 59.074684
45250950000 -3.1291955 57.605373
45500900000 -3.1762922 57.318554
45750850000 -3.2330878 55.752777
46000800000 -3.2494638 55.4809
46250750000 -3.2397952 54.944679
46500700000 -3.21703 54.086929
46750650000 -3.1019824 53.164757
47000600000 -3.252625 52.371181
47250550000 -3.2359166 51.11932
47500500000 -3.3282957 50.282211
47750450000 -3.3238473 50.150097
48000400000 -3.2851243 48.918674
48250350000 -3.2625663 48.473927
48500300000 -3.2944138 47.063339
48750250000 -3.3693583 46.195072
49000200000 -3.3680639 46.150696
49250150000 -3.4193223 45.207764
49500100000 -3.2686162 44.267159
49750050000 -3.3934708 43.075386
50000000000 -3.3616037 41.597736
