!Agilent Technologies,N5227A,US51270434,A.10.00.00
!Agilent N5227A: A.10.00.00
!Date: Thursday, February 26, 2026 12:32:49
!Correction: S11(Full 1 Port(1)) 
!S1P File: Measurement: S11:
# Hz S  dB   R 50
10000000 -6.3906169 0.38493079
259950000 -6.3356867 -3.1504886
509900000 -6.3351698 -6.3897238
759850000 -6.3227639 -9.5392904
1009800000 -6.2946644 -12.608784
1259750000 -6.2774029 -15.672624
1509700000 -6.238153 -18.881525
1759650000 -6.2079978 -21.968138
2009600000 -6.184371 -25.124573
2259550000 -6.1424422 -28.124321
2509500000 -6.1141973 -31.039351
2759450000 -6.0440941 -34.069912
3009400000 -5.984571 -36.990246
3259350000 -5.9365578 -39.90752
3509300000 -5.8688154 -42.945992
3759250000 -5.8080173 -45.891594
4009200000 -5.7496285 -48.845863
4259150000 -5.6809831 -51.710423
4509100000 -5.6220899 -54.456097
4759050000 -5.5369678 -57.234066
5009000000 -5.4648719 -59.949173
5258950000 -5.3992839 -62.708126
5508900000 -5.3098788 -65.434845
5758850000 -5.2287169 -68.02639
6008800000 -5.1730671 -70.714523
6258750000 -5.0769424 -73.35627
6508700000 -5.0166159 -75.822678
6758650000 -4.9286494 -78.398918
7008600000 -4.8417649 -80.880257
7258550000 -4.7714143 -83.317451
7508500000 -4.6850185 -85.83239
7758450000 -4.6206431 -88.270645
8008400000 -4.5286336 -90.620049
8258350000 -4.4398785 -92.914864
8508300000 -4.3635592 -95.235893
8758250000 -4.2826509 -97.63678
9008200000 -4.1917024 -99.840378
9258150000 -4.1448822 -102.19641
9508100000 -4.0627565 -104.39023
9758050000 -4.0040016 -106.56425
10008000000 -3.9265773 -108.69412
10257950000 -3.8585725 -110.8315
10507900000 -3.7939346 -113.01871
10757850000 -3.7278538 -115.12549
11007800000 -3.658324 -117.21774
11257750000 -3.6274388 -119.30788
11507700000 -3.5494988 -121.28729
11757650000 -3.4750555 -123.24183
12007600000 -3.4387193 -125.2829
12257550000 -3.3633342 -127.31383
12507500000 -3.3215935 -129.25421
12757450000 -3.2838967 -131.16841
13007400000 -3.2242277 -132.96281
13257350000 -3.1799269 -134.90959
13507300000 -3.1162531 -136.74217
13757250000 -3.0693057 -138.70483
14007200000 -3.0385556 -140.60838
14257150000 -2.9811041 -142.31056
14507100000 -2.9473369 -144.08475
14757050000 -2.9136369 -145.98885
15007000000 -2.8463283 -147.70906
15256950000 -2.8114626 -149.44884
15506900000 -2.7843983 -151.39102
15756850000 -2.7317736 -153.09067
16006800000 -2.7163305 -154.85797
16256750000 -2.6522672 -156.53648
16506700000 -2.6323333 -158.1566
16756650000 -2.6368177 -159.90135
17006600000 -2.5717399 -161.54482
17256550000 -2.562705 -163.01752
17506500000 -2.5550201 -164.79953
17756450000 -2.4999208 -166.39539
18006400000 -2.4966781 -167.8942
18256350000 -2.4812701 -169.62573
18506300000 -2.4481628 -171.1116
18756250000 -2.4591479 -172.62689
19006200000 -2.4212997 -174.14438
19256150000 -2.3991458 -175.60161
19506100000 -2.4008772 -177.11826
19756050000 -2.348233 -178.47562
20006000000 -2.3654997 -179.8597
20255950000 -2.356854 178.52538
20505900000 -2.2933209 177.22157
20755850000 -2.3158095 175.84425
21005800000 -2.3240118 174.0701
21255750000 -2.2862513 172.79575
21505700000 -2.3139811 171.49078
21755650000 -2.2765188 169.98868
22005600000 -2.260216 168.73761
22255550000 -2.2401264 167.29367
22505500000 -2.2023327 165.77507
22755450000 -2.2157023 164.52856
23005400000 -2.2115867 162.8835
23255350000 -2.1850123 161.62851
23505300000 -2.2520347 160.41634
23755250000 -2.212991 158.98727
24005200000 -2.1805835 157.93268
24255150000 -2.2334416 156.55453
24505100000 -2.195755 154.84486
24755050000 -2.2026098 153.70731
25005000000 -2.2392757 152.4669
25254950000 -2.2416852 151.1188
25504900000 -2.2527945 149.92429
25754850000 -2.2405841 148.64619
26004800000 -2.2355075 147.74925
26254750000 -2.2644391 146.60913
26504700000 -2.2020166 145.01825
26754650000 -2.1491773 144.3427
27004600000 -2.2148888 143.16696
27254550000 -2.1736703 141.46143
27504500000 -2.1392026 140.54832
27754450000 -2.2615707 139.36891
28004400000 -2.1868048 138.17213
28254350000 -2.1662638 137.15692
28504300000 -2.2010975 136.10632
28754250000 -2.1292448 134.513
29004200000 -2.1811447 133.28014
29254150000 -2.1769044 131.82713
29504100000 -2.2033129 130.55879
29754050000 -2.2928867 129.45436
30004000000 -2.2259228 128.25285
30253950000 -2.2247896 127.76348
30503900000 -2.3013144 126.68183
30753850000 -2.2113924 124.99908
31003800000 -2.2323384 124.40099
31253750000 -2.4047952 123.6058
31503700000 -2.3623812 122.12386
31753650000 -2.3558922 121.61729
32003600000 -2.3627908 120.9189
32253550000 -2.3649497 119.40025
32503500000 -2.3581042 118.32795
32753450000 -2.3524511 117.26354
33003400000 -2.3965664 116.3237
33253350000 -2.3576968 115.62931
33503300000 -2.2960691 114.35338
33753250000 -2.3686988 113.98436
34003200000 -2.3449223 112.76419
34253150000 -2.2255108 111.66872
34503100000 -2.1627989 111.87065
34753050000 -2.2429826 109.95962
35003000000 -2.1013498 108.50251
35252950000 -2.0686305 107.74063
35502900000 -2.1550417 106.29251
35752850000 -2.2645965 105.00042
36002800000 -2.2050588 103.95982
36252750000 -2.1475983 102.49355
36502700000 -2.2716498 101.45911
36752650000 -2.3263054 100.01876
37002600000 -2.2899058 99.199921
37252550000 -2.3310835 98.86145
37502500000 -2.2376213 97.735771
37752450000 -2.2311456 96.690941
38002400000 -2.2029607 95.353699
38252350000 -2.3051922 93.394272
38502300000 -2.4164679 93.696457
38752250000 -2.3680897 94.343727
39002200000 -2.2547414 92.784935
39252150000 -2.2042563 91.46904
39502100000 -2.1644888 89.640503
39752050000 -2.2954185 88.349205
40002000000 -2.3554265 87.808777
40251950000 -2.3300772 86.761765
40501900000 -2.2655888 86.523499
40751850000 -2.2243967 84.980453
41001800000 -2.2488816 83.469955
41251750000 -2.2324128 82.428085
41501700000 -2.3587677 81.740875
41751650000 -2.3341944 81.095573
42001600000 -2.2494144 80.73378
42251550000 -2.1111984 79.305725
42501500000 -2.2318432 77.351173
42751450000 -2.3380926 76.685081
43001400000 -2.4507334 76.320457
43251350000 -2.4432082 76.028046
43501300000 -2.2872248 75.029564
43751250000 -2.2160594 73.49704
44001200000 -2.3204038 71.840927
44251150000 -2.4785695 70.761543
44501100000 -2.4973264 70.76355
44751050000 -2.4569681 71.390152
45001000000 -2.1776328 71.272018
45250950000 -2.1209655 68.417542
45500900000 -2.1694114 66.996254
45750850000 -2.4109209 64.587708
46000800000 -2.6407778 67.5923
46250750000 -2.3521395 68.478355
46500700000 -1.9615467 66.570282
46750650000 -1.6439906 63.170822
47000600000 -2.1877828 60.356197
47250550000 -2.5083396 60.420597
47500500000 -2.56745 61.687775
47750450000 -2.1645677 61.794941
48000400000 -1.8932705 59.832829
48250350000 -1.7717162 56.643986
48500300000 -2.1480672 53.765114
48750250000 -2.5346737 52.83931
49000200000 -2.7776561 56.8773
49250150000 -1.7830021 58.963829
49500100000 -1.2541229 53.841511
49750050000 -1.3513017 48.52792
50000000000 -2.2564921 37.785065
