!Agilent Technologies,N5227A,US51270434,A.10.00.00
!Agilent N5227A: A.10.00.00
!Date: Thursday, February 26, 2026 12:29:35
!Correction: S11(Full 1 Port(1)) 
!S1P File: Measurement: S11:
# Hz S  dB   R 50
10000000 -6.5458493 0.23756289
259950000 -6.4884939 -4.8088446
509900000 -6.471313 -9.5565596
759850000 -6.4398108 -14.217678
1009800000 -6.3906136 -18.732174
1259750000 -6.3391156 -23.326921
1509700000 -6.2558513 -27.919634
1759650000 -6.1762094 -32.368141
2009600000 -6.1075835 -36.848408
2259550000 -6.0053744 -41.126347
2509500000 -5.9149833 -45.232777
2759450000 -5.792305 -49.35313
3009400000 -5.677496 -53.423283
3259350000 -5.5565124 -57.346992
3509300000 -5.4306331 -61.291634
3759250000 -5.3133674 -65.120239
4009200000 -5.1946697 -68.912575
4259150000 -5.0714169 -72.549591
4509100000 -4.9550824 -76.048569
4759050000 -4.8236146 -79.50956
5009000000 -4.7028532 -82.810066
5258950000 -4.5961771 -86.161537
5508900000 -4.4601426 -89.384834
5758850000 -4.3531389 -92.469353
6008800000 -4.24931 -95.606987
6258750000 -4.1245756 -98.632004
6508700000 -4.0388684 -101.48882
6758650000 -3.9234469 -104.33973
7008600000 -3.8202581 -107.11965
7258550000 -3.7299094 -109.81223
7508500000 -3.6283696 -112.50928
7758450000 -3.54743 -115.1868
8008400000 -3.450006 -117.64277
8258350000 -3.3572295 -120.11377
8508300000 -3.2745423 -122.59225
8758250000 -3.1898549 -125.02455
9008200000 -3.1018229 -127.30588
9258150000 -3.0485308 -129.77802
9508100000 -2.9771047 -132.0114
9758050000 -2.9211447 -134.25703
10008000000 -2.8603013 -136.42418
10257950000 -2.7954962 -138.53464
10507900000 -2.7392342 -140.68239
10757850000 -2.6769385 -142.73004
11007800000 -2.628299 -144.75203
11257750000 -2.5984173 -146.87645
11507700000 -2.5361776 -148.75073
11757650000 -2.4919848 -150.6398
12007600000 -2.4571624 -152.63098
12257550000 -2.4073317 -154.49596
12507500000 -2.3795409 -156.41782
12757450000 -2.3583384 -158.28741
13007400000 -2.3239672 -159.96532
13257350000 -2.2969368 -161.77931
13507300000 -2.261735 -163.4863
13757250000 -2.2282846 -165.24316
14007200000 -2.2144132 -167.09525
14257150000 -2.1828034 -168.62476
14507100000 -2.1708717 -170.31201
14757050000 -2.1532948 -172.05489
15007000000 -2.1171935 -173.52252
15256950000 -2.1078691 -175.11449
15506900000 -2.0865088 -176.83995
15756850000 -2.0557201 -178.36731
16006800000 -2.0620251 179.97372
16256750000 -2.0153155 178.57698
16506700000 -2.0271571 177.06697
16756650000 -2.0376244 175.46678
17006600000 -1.9943924 174.10185
17256550000 -2.0113089 172.73561
17506500000 -2.0146251 171.12463
17756450000 -1.9796133 169.78279
18006400000 -1.9923879 168.40585
18256350000 -1.9917613 166.91835
18506300000 -1.9788129 165.6586
18756250000 -1.9991657 164.25
19006200000 -1.9785349 162.94362
19256150000 -1.9794575 161.70679
19506100000 -1.9910876 160.35147
19756050000 -1.9660699 159.18546
20006000000 -2.0040603 157.94746
20255950000 -1.9987899 156.54234
20505900000 -1.9497977 155.54353
20755850000 -1.9984629 154.20183
21005800000 -2.0096941 152.6535
21255750000 -1.9886098 151.58501
21505700000 -2.0383506 150.3725
21755650000 -2.0093298 149.16861
22005600000 -2.0118558 148.11896
22255550000 -1.9988602 146.91876
22505500000 -1.9664029 145.65497
22755450000 -1.990955 144.57085
23005400000 -1.975461 143.13789
23255350000 -1.9671526 142.08879
23505300000 -2.0395372 140.93904
23755250000 -2.0080335 139.68207
24005200000 -1.9997237 138.87251
24255150000 -2.0672591 137.60367
24505100000 -2.0226331 136.19902
24755050000 -2.0349519 135.18993
25005000000 -2.0794153 134.03021
25254950000 -2.0820975 132.85922
25504900000 -2.1086826 131.72566
25754850000 -2.1070085 130.77663
26004800000 -2.1159699 129.99835
26254750000 -2.154269 128.9446
26504700000 -2.0812774 127.69302
26754650000 -2.0496895 127.22034
27004600000 -2.1214449 126.00501
27254550000 -2.0780149 124.60608
27504500000 -2.055696 123.84749
27754450000 -2.1826346 122.72105
28004400000 -2.100678 121.73329
28254350000 -2.1291196 120.84399
28504300000 -2.1499195 119.89676
28754250000 -2.0927923 118.58751
29004200000 -2.132472 117.68977
29254150000 -2.1160872 116.2837
29504100000 -2.1337731 115.16456
29754050000 -2.2179275 114.06745
30004000000 -2.1473718 113.01102
30253950000 -2.1821291 112.72324
30503900000 -2.2611666 111.65081
30753850000 -2.1664717 110.30675
31003800000 -2.2033668 109.82423
31253750000 -2.3730268 108.85313
31503700000 -2.318166 107.60529
31753650000 -2.3331292 107.3414
32003600000 -2.3497107 106.61143
32253550000 -2.3293321 105.38441
32503500000 -2.3356659 104.39992
32753450000 -2.3340027 103.24856
33003400000 -2.4039767 102.5481
33253350000 -2.3720827 101.85349
33503300000 -2.3100564 101.03598
33753250000 -2.401875 100.53133
34003200000 -2.3624475 99.678108
34253150000 -2.2238257 98.567833
34503100000 -2.2163494 98.874123
34753050000 -2.2586043 97.118645
35003000000 -2.1358495 96.224953
35252950000 -2.1082766 95.089561
35502900000 -2.1583545 93.811096
35752850000 -2.2854588 92.564995
36002800000 -2.2258978 91.689919
36252750000 -2.1746781 90.592171
36502700000 -2.2717209 89.531364
36752650000 -2.2989466 88.107285
37002600000 -2.274297 87.395554
37252550000 -2.3296022 87.047203
37502500000 -2.2817016 85.984383
37752450000 -2.2464736 85.228348
38002400000 -2.2373741 84.07592
38252350000 -2.307637 82.245438
38502300000 -2.4218864 82.145775
38752250000 -2.4060364 82.624481
39002200000 -2.3407595 81.435371
39252150000 -2.2633641 80.412552
39502100000 -2.2478509 79.089699
39752050000 -2.3202534 77.555603
40002000000 -2.375129 76.853043
40251950000 -2.3833959 75.975128
40501900000 -2.3481674 75.934837
40751850000 -2.2977219 74.602318
41001800000 -2.3127177 73.448967
41251750000 -2.2803218 72.454559
41501700000 -2.376776 71.621948
41751650000 -2.396389 70.817009
42001600000 -2.3521178 70.717888
42251550000 -2.2327342 69.746445
42501500000 -2.2943897 67.943245
42751450000 -2.3423753 67.141808
43001400000 -2.4603083 66.680672
43251350000 -2.4786792 66.256805
43501300000 -2.4049339 65.64946
43751250000 -2.3325391 64.509605
44001200000 -2.3626416 63.247738
44251150000 -2.4789784 61.949066
44501100000 -2.5088859 61.69154
44751050000 -2.5335336 61.993038
45001000000 -2.3384919 62.06263
45250950000 -2.2630112 60.023083
45500900000 -2.2646363 59.145435
45750850000 -2.3734949 56.879707
46000800000 -2.6384826 57.767513
46250750000 -2.4981678 58.478409
46500700000 -2.2127407 57.895061
46750650000 -1.8459388 55.792107
47000600000 -2.2007663 53.00605
47250550000 -2.4230824 52.099354
47500500000 -2.5874157 52.698723
47750450000 -2.3629014 53.316563
48000400000 -2.1324773 51.8992
48250350000 -1.9680222 49.851135
48500300000 -2.1529071 46.984131
48750250000 -2.4213872 45.615677
49000200000 -2.7116554 48.081078
49250150000 -2.1506512 50.24538
49500100000 -1.641307 47.135517
49750050000 -1.6178803 42.867626
50000000000 -2.1225176 34.050526
