!Agilent Technologies,N5227A,US51270434,A.10.00.00
!Agilent N5227A: A.10.00.00
!Date: Thursday, February 26, 2026 12:30:06
!Correction: S11(Full 1 Port(1)) 
!S1P File: Measurement: S11:
# Hz S  dB   R 50
10000000 -6.4823585 0.26218155
259950000 -6.4533744 -3.963479
509900000 -6.4426279 -7.9181666
759850000 -6.418961 -11.757499
1009800000 -6.3847523 -15.565569
1259750000 -6.3546748 -19.384945
1509700000 -6.292397 -23.278936
1759650000 -6.2464943 -27.045126
2009600000 -6.2004986 -30.831659
2259550000 -6.1336865 -34.516834
2509500000 -6.0703855 -38.019707
2759450000 -5.9763422 -41.605736
3009400000 -5.890379 -45.120014
3259350000 -5.8061147 -48.55983
3509300000 -5.7092714 -52.116837
3759250000 -5.6193399 -55.517162
4009200000 -5.532527 -58.925434
4259150000 -5.4351039 -62.240784
4509100000 -5.3493609 -65.398041
4759050000 -5.2321348 -68.55526
5009000000 -5.1326413 -71.605103
5258950000 -5.0449352 -74.728233
5508900000 -4.9256921 -77.739807
5758850000 -4.8337188 -80.665634
6008800000 -4.7414217 -83.593544
6258750000 -4.6331019 -86.475105
6508700000 -4.5557981 -89.228188
6758650000 -4.4483562 -91.974754
7008600000 -4.34512 -94.647331
7258550000 -4.2593012 -97.282639
7508500000 -4.1681051 -99.939491
7758450000 -4.0868969 -102.5134
8008400000 -3.9839787 -104.97428
8258350000 -3.8864849 -107.36845
8508300000 -3.8027148 -109.83267
8758250000 -3.7142394 -112.26458
9008200000 -3.6236117 -114.57371
9258150000 -3.5688555 -117.03796
9508100000 -3.4815712 -119.30247
9758050000 -3.4228489 -121.53327
10008000000 -3.3556042 -123.72086
10257950000 -3.2840669 -125.86115
10507900000 -3.2203212 -128.0753
10757850000 -3.14992 -130.16751
11007800000 -3.0827925 -132.26431
11257750000 -3.0541401 -134.42587
11507700000 -2.9808743 -136.36293
11757650000 -2.9133608 -138.3333
12007600000 -2.8843689 -140.33873
12257550000 -2.8171339 -142.31773
12507500000 -2.7820842 -144.28058
12757450000 -2.748769 -146.21181
13007400000 -2.6997607 -147.97845
13257350000 -2.6643469 -149.86679
13507300000 -2.613869 -151.65729
13757250000 -2.5751696 -153.53
14007200000 -2.5473235 -155.44359
14257150000 -2.5061719 -157.07196
14507100000 -2.4847825 -158.81874
14757050000 -2.4591165 -160.65546
15007000000 -2.4044855 -162.23865
15256950000 -2.3820443 -163.95078
15506900000 -2.3584661 -165.76912
15756850000 -2.3162153 -167.37762
16006800000 -2.3087492 -169.11368
16256750000 -2.255738 -170.63991
16506700000 -2.2598314 -172.23059
16756650000 -2.2626693 -173.93738
17006600000 -2.212158 -175.43472
17256550000 -2.2165906 -176.86232
17506500000 -2.2153895 -178.54344
17756450000 -2.1643667 179.98752
18006400000 -2.1718011 178.51205
18256350000 -2.1664569 176.91634
18506300000 -2.1442041 175.54178
18756250000 -2.1588924 174.0799
19006200000 -2.133949 172.67456
19256150000 -2.1178846 171.33781
19506100000 -2.1325133 169.87596
19756050000 -2.0939634 168.63139
20006000000 -2.1246405 167.32179
20255950000 -2.1171606 165.77888
20505900000 -2.0588889 164.66716
20755850000 -2.0967951 163.27539
21005800000 -2.1062982 161.64168
21255750000 -2.0792823 160.49011
21505700000 -2.1198685 159.21605
21755650000 -2.0917587 157.87834
22005600000 -2.0784943 156.73599
22255550000 -2.0686188 155.44966
22505500000 -2.0334837 154.05406
22755450000 -2.0509295 152.91957
23005400000 -2.0455487 151.3746
23255350000 -2.0367091 150.21629
23505300000 -2.0954947 149.00734
23755250000 -2.0614429 147.68828
24005200000 -2.0430033 146.80412
24255150000 -2.1101687 145.44386
24505100000 -2.06987 143.93942
24755050000 -2.0730162 142.8679
25005000000 -2.117516 141.67741
25254950000 -2.1206725 140.43378
25504900000 -2.1289463 139.17839
25754850000 -2.1393027 138.0887
26004800000 -2.1292953 137.29076
26254750000 -2.1746135 136.13676
26504700000 -2.1077931 134.81026
26754650000 -2.0607989 134.07831
27004600000 -2.1608629 133.0184
27254550000 -2.0880504 131.55209
27504500000 -2.0883005 130.63628
27754450000 -2.1983113 129.65804
28004400000 -2.1154449 128.48029
28254350000 -2.1307228 127.54604
28504300000 -2.1642127 126.54922
28754250000 -2.0880797 125.06945
29004200000 -2.1418424 124.11416
29254150000 -2.1194077 122.71929
29504100000 -2.1455717 121.44405
29754050000 -2.2337406 120.37157
30004000000 -2.1571906 119.173
30253950000 -2.1957331 118.90168
30503900000 -2.2675087 117.82999
30753850000 -2.1705949 116.34219
31003800000 -2.1965542 115.82404
31253750000 -2.3489666 114.90956
31503700000 -2.3086882 113.46396
31753650000 -2.3281329 113.13789
32003600000 -2.3298607 112.4361
32253550000 -2.3101332 111.07535
32503500000 -2.329721 110.05841
32753450000 -2.3145313 108.97161
33003400000 -2.3868654 108.21992
33253350000 -2.3413095 107.44271
33503300000 -2.3054979 106.47675
33753250000 -2.3548446 106.03604
34003200000 -2.3272719 104.99533
34253150000 -2.2118392 104.00081
34503100000 -2.1678319 104.14604
34753050000 -2.2289298 102.27092
35003000000 -2.1071854 101.24461
35252950000 -2.077574 100.24091
35502900000 -2.1395824 98.944977
35752850000 -2.2620068 97.581604
36002800000 -2.2004755 96.626404
36252750000 -2.1494179 95.407822
36502700000 -2.2606816 94.457916
36752650000 -2.286869 93.083282
37002600000 -2.2669406 92.171501
37252550000 -2.3169074 91.861328
37502500000 -2.2618411 90.667648
37752450000 -2.2383409 89.877907
38002400000 -2.1983366 88.770546
38252350000 -2.2987273 86.745438
38502300000 -2.4105482 86.905952
38752250000 -2.3516562 87.23716
39002200000 -2.3134661 85.939178
39252150000 -2.2355564 84.899986
39502100000 -2.2094951 83.198669
39752050000 -2.29111 81.816658
40002000000 -2.3557332 81.208977
40251950000 -2.3522847 80.322769
40501900000 -2.3225417 80.23996
40751850000 -2.251673 78.944649
41001800000 -2.2910652 77.498756
41251750000 -2.2478108 76.483269
41501700000 -2.3511312 75.509171
41751650000 -2.3599854 75.01236
42001600000 -2.2812645 74.682358
42251550000 -2.1810195 73.775978
42501500000 -2.2353091 71.87632
42751450000 -2.3158941 71.13382
43001400000 -2.444186 70.561752
43251350000 -2.4463909 70.042625
43501300000 -2.3372784 69.42807
43751250000 -2.2757826 68.22506
44001200000 -2.3184946 66.760902
44251150000 -2.4572942 65.56691
44501100000 -2.481689 65.29615
44751050000 -2.4720187 65.535522
45001000000 -2.2754521 65.698647
45250950000 -2.2119994 63.511497
45500900000 -2.2185726 62.443081
45750850000 -2.3536556 60.050179
46000800000 -2.6237109 61.452915
46250750000 -2.4747989 62.185799
46500700000 -2.1458478 61.51239
46750650000 -1.7904494 58.845982
47000600000 -2.1707914 56.308903
47250550000 -2.4325387 55.276524
47500500000 -2.5490885 56.198212
47750450000 -2.2931507 56.514565
48000400000 -2.051307 55.084099
48250350000 -1.9014605 52.70105
48500300000 -2.1363995 49.876236
48750250000 -2.4534886 48.624382
49000200000 -2.7244759 51.557056
49250150000 -2.0200715 53.334274
49500100000 -1.5396967 49.871471
49750050000 -1.550805 45.434883
50000000000 -2.13692 36.604179
