!Agilent Technologies,N5227A,US51270434,A.10.00.00
!Agilent N5227A: A.10.00.00
!Date: Thursday, February 26, 2026 12:34:30
!Correction: S11(Full 1 Port(1)) 
!S1P File: Measurement: S11:
# Hz S  dB   R 50
10000000 -6.3642979 0.22331236
259950000 -6.2560883 -2.9278588
509900000 -6.2632756 -5.9308019
759850000 -6.2486429 -8.8660889
1009800000 -6.2249765 -11.729809
1259750000 -6.2154245 -14.599104
1509700000 -6.1761246 -17.584381
1759650000 -6.1457572 -20.467838
2009600000 -6.1353202 -23.397879
2259550000 -6.0959077 -26.240437
2509500000 -6.0706916 -28.96435
2759450000 -6.013555 -31.772364
3009400000 -5.967196 -34.566372
3259350000 -5.9168425 -37.338543
3509300000 -5.8656259 -40.186432
3759250000 -5.8131557 -42.959461
4009200000 -5.7682033 -45.763756
4259150000 -5.7035899 -48.475742
4509100000 -5.649888 -51.098759
4759050000 -5.5824347 -53.722046
5009000000 -5.5152688 -56.300579
5258950000 -5.4604988 -58.919609
5508900000 -5.3737421 -61.599026
5758850000 -5.3103127 -64.061821
6008800000 -5.2552419 -66.652527
6258750000 -5.1702995 -69.211151
6508700000 -5.1162887 -71.571236
6758650000 -5.0380545 -74.020966
7008600000 -4.9571958 -76.449211
7258550000 -4.8917074 -78.818901
7508500000 -4.8178902 -81.277657
7758450000 -4.7510118 -83.616409
8008400000 -4.6699214 -85.898949
8258350000 -4.5806227 -88.154427
8508300000 -4.5066085 -90.407753
8758250000 -4.4366198 -92.743484
9008200000 -4.3473225 -94.926521
9258150000 -4.3035998 -97.218826
9508100000 -4.2294326 -99.405769
9758050000 -4.1719389 -101.51073
10008000000 -4.0978265 -103.59651
10257950000 -4.0293441 -105.74115
10507900000 -3.967015 -107.8793
10757850000 -3.8999965 -109.96175
11007800000 -3.8367515 -112.03116
11257750000 -3.8074787 -114.08236
11507700000 -3.7264035 -116.03169
11757650000 -3.6503751 -118.00581
12007600000 -3.6183946 -120.04048
12257550000 -3.5446935 -122.02225
12507500000 -3.5011187 -123.9845
12757450000 -3.4648967 -125.88702
13007400000 -3.4029715 -127.67126
13257350000 -3.3557315 -129.60234
13507300000 -3.2859814 -131.43051
13757250000 -3.2387607 -133.40033
14007200000 -3.2131622 -135.34239
14257150000 -3.1521709 -137.05812
14507100000 -3.1117303 -138.76538
14757050000 -3.0782747 -140.70715
15007000000 -3.0084348 -142.45729
15256950000 -2.9698982 -144.23325
15506900000 -2.9371128 -146.17726
15756850000 -2.8865314 -147.88136
16006800000 -2.8748064 -149.67201
16256750000 -2.8054454 -151.33746
16506700000 -2.7837682 -153.00055
16756650000 -2.7847979 -154.74327
17006600000 -2.7154818 -156.44322
17256550000 -2.6982527 -157.90468
17506500000 -2.693897 -159.67924
17756450000 -2.6348553 -161.32275
18006400000 -2.6258347 -162.85965
18256350000 -2.6114171 -164.60803
18506300000 -2.5766184 -166.11407
18756250000 -2.5813868 -167.63649
19006200000 -2.5437253 -169.19894
19256150000 -2.5156541 -170.60905
19506100000 -2.5185273 -172.20882
19756050000 -2.4584634 -173.61182
20006000000 -2.4723563 -174.99432
20255950000 -2.4651141 -176.70169
20505900000 -2.393497 -177.98906
20755850000 -2.4116173 -179.39645
21005800000 -2.4205422 178.81897
21255750000 -2.380753 177.46631
21505700000 -2.4005914 176.13969
21755650000 -2.3676708 174.63994
22005600000 -2.3443079 173.33592
22255550000 -2.322279 171.87459
22505500000 -2.2814364 170.28598
22755450000 -2.2938879 169.0159
23005400000 -2.288914 167.34889
23255350000 -2.2648752 166.0417
23505300000 -2.3268039 164.84363
23755250000 -2.2861848 163.37311
24005200000 -2.243283 162.29704
24255150000 -2.2966619 160.92422
24505100000 -2.2646041 159.13141
24755050000 -2.2629721 157.94247
25005000000 -2.3029902 156.69888
25254950000 -2.3014214 155.35811
25504900000 -2.3103971 154.08101
25754850000 -2.3010561 152.80299
26004800000 -2.2928946 151.82884
26254750000 -2.3186483 150.69615
26504700000 -2.2625461 149.07889
26754650000 -2.2033131 148.3952
27004600000 -2.2677629 147.15028
27254550000 -2.2210352 145.4265
27504500000 -2.182729 144.35297
27754450000 -2.317169 143.28951
28004400000 -2.2336254 142.0493
28254350000 -2.2108338 141.03076
28504300000 -2.2412801 139.95396
28754250000 -2.1755002 138.21886
29004200000 -2.2243185 137.10796
29254150000 -2.2306325 135.58679
29504100000 -2.2419271 134.23306
29754050000 -2.3314466 133.15576
30004000000 -2.2628772 131.85394
30253950000 -2.2604339 131.43932
30503900000 -2.3374269 130.24594
30753850000 -2.2530642 128.5072
31003800000 -2.2811368 127.85543
31253750000 -2.4310496 127.24641
31503700000 -2.3850675 125.52724
31753650000 -2.377476 125.09
32003600000 -2.3938406 124.2207
32253550000 -2.3881476 122.86483
32503500000 -2.3918734 121.76334
32753450000 -2.3816776 120.61797
33003400000 -2.4207177 119.72753
33253350000 -2.3786116 118.86267
33503300000 -2.3179014 117.51525
33753250000 -2.4022493 117.07679
34003200000 -2.3938313 116.01925
34253150000 -2.2226744 114.94356
34503100000 -2.1649895 114.97121
34753050000 -2.2391212 113.07838
35003000000 -2.1316066 111.52219
35252950000 -2.0851243 110.68227
35502900000 -2.1794429 109.35152
35752850000 -2.2997885 108.01891
36002800000 -2.2014973 106.94889
36252750000 -2.1550076 105.36138
36502700000 -2.2923646 104.30165
36752650000 -2.3603473 102.91248
37002600000 -2.3199415 102.16609
37252550000 -2.3515339 101.78194
37502500000 -2.2592573 100.59096
37752450000 -2.2298908 99.464783
38002400000 -2.218339 98.053192
38252350000 -2.3418975 96.102989
38502300000 -2.4739928 96.611595
38752250000 -2.3478594 97.202301
39002200000 -2.2423077 95.485924
39252150000 -2.193826 94.196335
39502100000 -2.1943665 92.234955
39752050000 -2.3169858 90.969604
40002000000 -2.3704278 90.537292
40251950000 -2.3207622 89.505333
40501900000 -2.2668953 89.130333
40751850000 -2.2083998 87.449501
41001800000 -2.2641273 85.841743
41251750000 -2.2514501 84.986931
41501700000 -2.3670189 84.260437
41751650000 -2.347048 83.478798
42001600000 -2.232393 83.184235
42251550000 -2.075563 81.88472
42501500000 -2.2333298 79.431793
42751450000 -2.3464568 78.952805
43001400000 -2.4624846 78.860344
43251350000 -2.4174595 78.616486
43501300000 -2.2666459 77.399574
43751250000 -2.1945484 75.602837
44001200000 -2.310472 74.002914
44251150000 -2.4952536 73.138039
44501100000 -2.5398221 73.117088
44751050000 -2.4529073 73.797493
45001000000 -2.1612613 73.525482
45250950000 -2.0993695 70.437515
45500900000 -2.1672785 69.159096
45750850000 -2.4283707 66.749817
46000800000 -2.6898749 69.830482
46250750000 -2.313484 70.821327
46500700000 -1.9268762 68.826309
46750650000 -1.5955551 64.714203
47000600000 -2.2119637 62.34338
47250550000 -2.5470366 62.629303
47500500000 -2.5597548 64.17263
47750450000 -2.1255116 64.022491
48000400000 -1.8465492 61.72744
48250350000 -1.7467171 58.322868
48500300000 -2.1753504 55.370735
48750250000 -2.5758841 54.515381
49000200000 -2.8405654 59.175468
49250150000 -1.7095697 60.972683
49500100000 -1.1729633 55.412678
49750050000 -1.2864851 49.926056
50000000000 -2.3208835 38.104855
