!Agilent Technologies,N5227A,US51270434,A.10.00.00
!Agilent N5227A: A.10.00.00
!Date: Thursday, February 26, 2026 12:32:07
!Correction: S11(Full 1 Port(1)) 
!S1P File: Measurement: S11:
# Hz S  dB   R 50
10000000 -6.4530101 0.12731197
259950000 -6.3996592 -3.4643354
509900000 -6.3985562 -6.9898915
759850000 -6.382659 -10.427609
1009800000 -6.3496127 -13.797611
1259750000 -6.3314381 -17.151653
1509700000 -6.2825294 -20.626913
1759650000 -6.247973 -23.967911
2009600000 -6.2130098 -27.354692
2259550000 -6.1618533 -30.675892
2509500000 -6.1118212 -33.831295
2759450000 -6.0375452 -37.063698
3009400000 -5.9695311 -40.262764
3259350000 -5.9050097 -43.389851
3509300000 -5.8314352 -46.648224
3759250000 -5.7553473 -49.768398
4009200000 -5.6872878 -52.959251
4259150000 -5.6025224 -55.97657
4509100000 -5.5339651 -58.910641
4759050000 -5.439146 -61.855278
5009000000 -5.348856 -64.69516
5258950000 -5.2758298 -67.637825
5508900000 -5.1749115 -70.460808
5758850000 -5.0878124 -73.250214
6008800000 -5.0165153 -76.035416
6258750000 -4.9127769 -78.808632
6508700000 -4.8441091 -81.384949
6758650000 -4.747828 -84.041893
7008600000 -4.6559148 -86.595825
7258550000 -4.5754576 -89.127197
7508500000 -4.4879112 -91.736282
7758450000 -4.4105539 -94.229469
8008400000 -4.3203506 -96.664711
8258350000 -4.2213545 -98.971619
8508300000 -4.1407971 -101.36316
8758250000 -4.0619555 -103.79789
9008200000 -3.9585147 -106.06638
9258150000 -3.912864 -108.45784
9508100000 -3.8322885 -110.69796
9758050000 -3.7660477 -112.91877
10008000000 -3.695751 -115.05495
10257950000 -3.6193857 -117.21938
10507900000 -3.5593121 -119.43139
10757850000 -3.4837399 -121.56439
11007800000 -3.4204624 -123.63367
11257750000 -3.3878419 -125.75989
11507700000 -3.3075144 -127.74735
11757650000 -3.2380335 -129.70407
12007600000 -3.2030303 -131.74306
12257550000 -3.1301355 -133.75742
12507500000 -3.0855291 -135.73262
12757450000 -3.0548744 -137.67177
13007400000 -2.9983671 -139.45276
13257350000 -2.9534798 -141.36655
13507300000 -2.8961365 -143.18207
13757250000 -2.848419 -145.11913
14007200000 -2.825253 -147.08047
14257150000 -2.772624 -148.72482
14507100000 -2.7427914 -150.47829
14757050000 -2.7123299 -152.36569
15007000000 -2.6495931 -154.05852
15256950000 -2.6184766 -155.7755
15506900000 -2.5909121 -157.67761
15756850000 -2.5470769 -159.35399
16006800000 -2.5340681 -161.13202
16256750000 -2.4736283 -162.7368
16506700000 -2.4620054 -164.36189
16756650000 -2.4679832 -166.07092
17006600000 -2.4031811 -167.68619
17256550000 -2.3987248 -169.12201
17506500000 -2.3966699 -170.8768
17756450000 -2.347441 -172.38826
18006400000 -2.3471072 -173.9015
18256350000 -2.3322456 -175.58943
18506300000 -2.306881 -177.02393
18756250000 -2.3163488 -178.50395
19006200000 -2.2822516 -179.99695
19256150000 -2.2722301 178.62854
19506100000 -2.2744226 177.12978
19756050000 -2.2287631 175.80458
20006000000 -2.2525611 174.43605
20255950000 -2.240005 172.86385
20505900000 -2.1850941 171.63969
20755850000 -2.2126725 170.25357
21005800000 -2.2219794 168.52782
21255750000 -2.1889603 167.2847
21505700000 -2.2187908 166.00754
21755650000 -2.1831439 164.56815
22005600000 -2.1760786 163.37637
22255550000 -2.1523461 162.00267
22505500000 -2.1176205 160.53961
22755450000 -2.137363 159.34209
23005400000 -2.1229527 157.71104
23255350000 -2.1073818 156.55162
23505300000 -2.1746171 155.26439
23755250000 -2.1346693 153.91534
24005200000 -2.1089571 152.91711
24255150000 -2.1716764 151.5955
24505100000 -2.1273925 149.93915
24755050000 -2.1436017 148.8329
25005000000 -2.1741257 147.61731
25254950000 -2.1786766 146.31757
25504900000 -2.1961379 145.11024
25754850000 -2.191344 143.90179
26004800000 -2.185514 143.06721
26254750000 -2.2126129 141.89671
26504700000 -2.1579471 140.44514
26754650000 -2.108815 139.84644
27004600000 -2.1700246 138.56039
27254550000 -2.1307361 136.99875
27504500000 -2.098547 136.0808
27754450000 -2.2233512 134.95094
28004400000 -2.1491346 133.69669
28254350000 -2.1451848 132.88498
28504300000 -2.1741748 131.82039
28754250000 -2.1022704 130.25998
29004200000 -2.1555672 129.16818
29254150000 -2.1578224 127.67536
29504100000 -2.1675565 126.41895
29754050000 -2.2632253 125.3754
30004000000 -2.1859248 124.15009
30253950000 -2.1934838 123.79311
30503900000 -2.2835143 122.64308
30753850000 -2.193614 121.10676
31003800000 -2.2173343 120.53755
31253750000 -2.3790054 119.58025
31503700000 -2.3396456 118.17982
31753650000 -2.3349891 117.75716
32003600000 -2.3449631 117.11011
32253550000 -2.3273644 115.60916
32503500000 -2.3434784 114.53924
32753450000 -2.3330374 113.45333
33003400000 -2.3904097 112.62597
33253350000 -2.3580499 111.9104
33503300000 -2.2853849 110.79354
33753250000 -2.3675995 110.32967
34003200000 -2.334224 109.20476
34253150000 -2.2063475 108.2227
34503100000 -2.1547859 108.32185
34753050000 -2.23242 106.49233
35003000000 -2.0913925 105.35393
35252950000 -2.0746899 104.29716
35502900000 -2.1337178 102.81252
35752850000 -2.2615314 101.63821
36002800000 -2.2010052 100.64437
36252750000 -2.1374569 99.255623
36502700000 -2.2645211 98.229347
36752650000 -2.3087468 96.82959
37002600000 -2.2893467 95.997559
37252550000 -2.3239207 95.735329
37502500000 -2.2537189 94.563782
37752450000 -2.2188232 93.431206
38002400000 -2.1993701 92.252655
38252350000 -2.3031342 90.525688
38502300000 -2.4338229 90.53656
38752250000 -2.3401964 91.305847
39002200000 -2.2750781 89.681335
39252150000 -2.1894805 88.410278
39502100000 -2.1817219 86.635338
39752050000 -2.2804773 85.305908
40002000000 -2.3571198 84.889496
40251950000 -2.3395541 83.938171
40501900000 -2.2862842 83.787643
40751850000 -2.222744 82.154968
41001800000 -2.2517862 80.77784
41251750000 -2.236351 79.704659
41501700000 -2.3566201 78.879631
41751650000 -2.3419273 78.406143
42001600000 -2.2516568 78.116714
42251550000 -2.1226342 76.777916
42501500000 -2.2053695 74.609299
42751450000 -2.3276422 73.9216
43001400000 -2.4579663 73.858475
43251350000 -2.4507649 73.467094
43501300000 -2.296509 72.543182
43751250000 -2.2294033 71.092216
44001200000 -2.3076172 69.562355
44251150000 -2.470093 68.346855
44501100000 -2.5071099 68.25779
44751050000 -2.4825273 68.865601
45001000000 -2.1915207 68.999451
45250950000 -2.1340072 66.123619
45500900000 -2.1714988 64.928947
45750850000 -2.3903015 62.282978
46000800000 -2.6811674 65.180405
46250750000 -2.4030418 65.864609
46500700000 -2.017174 64.351921
46750650000 -1.6611733 60.948353
47000600000 -2.1888072 58.430809
47250550000 -2.4957359 58.093777
47500500000 -2.5619676 59.40432
47750450000 -2.2150702 59.678246
48000400000 -1.9365385 57.784645
48250350000 -1.7998837 54.871632
48500300000 -2.1297324 51.770218
48750250000 -2.4877481 50.70731
49000200000 -2.7748852 54.33345
49250150000 -1.863397 56.56654
49500100000 -1.3230247 52.011734
49750050000 -1.3646001 46.76236
50000000000 -2.1991761 36.216297
