!Agilent Technologies,N5227A,US51270434,A.10.00.00
!Agilent N5227A: A.10.00.00
!Date: Monday, March 30, 2026 11:35:00
!Correction: S11(Full 1 Port(1)) 
!S1P File: Measurement: S11:
# Hz S  dB   R 50
10000000 -4.5356059 0.60241777
209950000 -4.4357905 -4.5425072
409900000 -4.4313216 -8.7813997
609850000 -4.4296532 -13.054994
809800000 -4.4057331 -17.237211
1009750000 -4.3992486 -21.239717
1209700000 -4.3755369 -25.372086
1409650000 -4.3405771 -29.356352
1609600000 -4.3085303 -33.285702
1809550000 -4.2897849 -37.651993
2009500000 -4.2557626 -41.203808
2209450000 -4.2175922 -44.862511
2409400000 -4.1977696 -48.767727
2609350000 -4.1380696 -52.049099
2809300000 -4.1115255 -55.930073
3009250000 -4.055007 -59.246147
3209200000 -4.0018005 -62.761803
3409150000 -3.9377286 -66.097076
3609100000 -3.896517 -69.500259
3809050000 -3.8678288 -72.831726
4009000000 -3.8075986 -75.763847
4208950000 -3.7771971 -78.81881
4408900000 -3.7226136 -81.861748
4608850000 -3.6911216 -84.879807
4808800000 -3.6315567 -87.458786
5008750000 -3.5831151 -90.495537
5208700000 -3.5498998 -93.323647
5408650000 -3.5006661 -96.051132
5608600000 -3.4615331 -98.590134
5808550000 -3.4163613 -101.08528
6008500000 -3.3758047 -103.61813
6208450000 -3.3472533 -106.14208
6408400000 -3.3029449 -108.56854
6608350000 -3.2814364 -110.73718
6808300000 -3.2438006 -113.32576
7008250000 -3.2125132 -115.4966
7208200000 -3.1606266 -117.65956
7408150000 -3.1390138 -120.00272
7608100000 -3.113188 -121.99603
7808050000 -3.0755699 -124.14657
8008000000 -3.0548422 -126.09232
8207950000 -3.0069704 -128.12204
8407900000 -2.9911888 -130.04227
8607850000 -2.9487154 -132.00139
8807800000 -2.931581 -133.91765
9007750000 -2.8892291 -135.71045
9207700000 -2.8824117 -137.63947
9407650000 -2.8547349 -139.44075
9607600000 -2.8391623 -141.28865
9807550000 -2.8250902 -143.07437
10007500000 -2.8027689 -144.62
10207450000 -2.799176 -146.55338
10407400000 -2.7768767 -148.01593
10607350000 -2.7666447 -149.79503
10807300000 -2.7473786 -151.13867
11007250000 -2.7334845 -152.79587
11207200000 -2.721348 -154.3633
11407150000 -2.6991532 -155.93362
11607100000 -2.6753895 -157.44368
11807050000 -2.6745987 -158.70282
12007000000 -2.6317728 -160.29413
12206950000 -2.6715205 -161.59793
12406900000 -2.6040471 -163.22366
12606850000 -2.651417 -164.42336
12806800000 -2.5981162 -166.10425
13006750000 -2.6100566 -167.38368
13206700000 -2.5905101 -168.87541
13406650000 -2.5842085 -170.21033
13606600000 -2.6011455 -171.5912
13806550000 -2.5758555 -172.88307
14006500000 -2.5936508 -174.30899
14206450000 -2.5537231 -175.43739
14406400000 -2.5816402 -176.8251
14606350000 -2.5613422 -178.0018
14806300000 -2.5637248 -179.50919
15006250000 -2.5509174 179.47447
15206200000 -2.5338938 178.18663
15406150000 -2.5523293 176.98872
15606100000 -2.5502338 175.67323
15806050000 -2.5471554 174.4381
16006000000 -2.5343993 173.39948
16205950000 -2.5496523 172.07402
16405900000 -2.5337994 171.06282
16605850000 -2.5526021 169.81703
16805800000 -2.5462394 168.66675
17005750000 -2.533361 167.53282
17205700000 -2.5432341 166.49318
17405650000 -2.5491583 165.42558
17605600000 -2.5594974 164.17886
17805550000 -2.5517802 163.24341
18005500000 -2.5477567 162.13872
18205450000 -2.5684967 161.15652
18405400000 -2.5424604 159.99544
18605350000 -2.554276 159.13741
18805300000 -2.5441628 158.14725
19005250000 -2.5616956 156.98473
19205200000 -2.550621 156.12512
19405150000 -2.5270891 155.0139
19605100000 -2.5638521 154.22258
19805050000 -2.5198605 153.01419
20005000000 -2.5875819 152.31891
20204950000 -2.5355761 151.1416
20404900000 -2.5658202 150.32108
20604850000 -2.5536864 149.1853
20804800000 -2.5597939 148.2933
21004750000 -2.5923469 147.12309
21204700000 -2.5437722 146.27008
21404650000 -2.5740921 145.26306
21604600000 -2.5495207 144.67236
21804550000 -2.6028609 143.116
22004500000 -2.5618258 142.6851
22204450000 -2.5907538 141.31104
22404400000 -2.5891433 141.0022
22604350000 -2.6000576 139.52435
22804300000 -2.62059 139.2449
23004250000 -2.5593176 138.0547
23204200000 -2.609035 137.21059
23404150000 -2.5945876 136.44876
23604100000 -2.6228907 135.2435
23804050000 -2.6205521 134.66374
24004000000 -2.6230199 133.57486
24203950000 -2.6602774 132.80574
24403900000 -2.6219852 131.89009
24603850000 -2.6496825 130.92862
24803800000 -2.6183436 130.38556
25003750000 -2.6529357 129.23602
25203700000 -2.6800129 128.47093
25403650000 -2.6304698 127.3562
25603600000 -2.6774127 126.77747
25803550000 -2.5887752 125.85647
26003500000 -2.6943929 125.23455
26203450000 -2.6190104 124.15795
26403400000 -2.6773717 123.24018
26603350000 -2.6202617 122.52054
26803300000 -2.6632748 121.67773
27003250000 -2.6759765 121.16788
27203200000 -2.6490552 119.79951
27403150000 -2.6585002 119.4068
27603100000 -2.6598046 118.76475
27803050000 -2.7221308 117.63393
28003000000 -2.7134376 117.18472
28202950000 -2.7003913 116.04716
28402900000 -2.7365322 115.59833
28602850000 -2.6606939 114.28481
28802800000 -2.7379277 113.50681
29002750000 -2.6487305 113.14912
29202700000 -2.7747412 111.77054
29402650000 -2.698401 111.77293
29602600000 -2.7672615 109.97211
29802550000 -2.7208941 110.03953
30002500000 -2.7074511 108.80843
30202450000 -2.7290304 108.83684
30402400000 -2.7529328 107.98366
30602350000 -2.7407649 106.46912
30802300000 -2.6728909 107.16683
31002250000 -2.6770778 105.99803
31202200000 -2.866107 106.32848
31402150000 -2.7922182 103.57055
31602100000 -2.8789968 103.75487
31802050000 -2.6676431 102.86791
32002000000 -2.9444821 102.96572
32201950000 -2.7880726 100.95905
32401900000 -2.8092818 100.56892
32601850000 -2.8239355 99.964149
32801800000 -2.7961342 99.16153
33001750000 -2.9253373 98.096367
33201700000 -2.6777654 97.812286
33401650000 -2.8693466 96.74633
33601600000 -2.7355196 97.263176
33801550000 -2.8672912 95.198097
34001500000 -2.7148876 96.174438
34201450000 -2.6948612 93.903603
34401400000 -2.7529709 95.164719
34601350000 -2.746964 93.465866
34801300000 -2.8976204 92.567947
35001250000 -2.6493232 92.070061
35201200000 -2.7061017 91.001465
35401150000 -2.6473863 92.767464
35601100000 -2.9379673 89.443924
35801050000 -2.7706044 89.839027
36001000000 -2.6764328 87.619736
36200950000 -2.7703366 88.122238
36400900000 -2.7207339 86.589882
36600850000 -2.8163929 85.422607
36800800000 -2.707839 85.330986
37000750000 -2.7433758 84.092453
37200700000 -2.7531762 84.275742
37400650000 -2.6979768 83.011482
37600600000 -2.8512509 82.257385
37800550000 -2.5863161 82.103912
38000500000 -2.7558546 80.891838
38200450000 -2.6490333 81.299919
38400400000 -2.7019844 79.70797
38600350000 -2.7505074 80.456055
38800300000 -2.6138854 77.988846
39000250000 -2.818536 78.646851
39200200000 -2.612119 76.080147
39400150000 -2.8006444 76.515205
39600100000 -2.7138627 75.085899
39800050000 -2.789701 74.492767
40000000000 -2.8059912 73.655029
