!Agilent Technologies,N5227A,US51270434,A.10.00.00
!Agilent N5227A: A.10.00.00
!Date: Monday, March 30, 2026 11:35:14
!Correction: S11(Full 1 Port(1)) 
!S1P File: Measurement: S11:
# Hz S  dB   R 50
10000000 -4.4382691 0.46316975
209950000 -4.3936734 -2.3894904
409900000 -4.3963623 -4.7938833
609850000 -4.3953271 -7.1416483
809800000 -4.389545 -9.5193453
1009750000 -4.3961945 -11.745929
1209700000 -4.3904481 -14.103525
1409650000 -4.3727655 -16.397209
1609600000 -4.3722348 -18.772388
1809550000 -4.3609276 -21.128633
2009500000 -4.3598609 -23.433422
2209450000 -4.3528614 -25.745995
2409400000 -4.3565822 -27.935871
2609350000 -4.3314528 -30.143356
2809300000 -4.3366909 -32.391331
3009250000 -4.3083658 -34.592308
3209200000 -4.3020186 -36.878517
3409150000 -4.2661347 -39.01894
3609100000 -4.2543507 -41.370247
3809050000 -4.2533464 -43.553375
4009000000 -4.2257605 -45.785252
4208950000 -4.2190042 -47.927498
4408900000 -4.1937137 -50.092331
4608850000 -4.1887798 -52.291553
4808800000 -4.1503868 -54.33387
5008750000 -4.1302857 -56.481941
5208700000 -4.1086097 -58.536045
5408650000 -4.0871339 -60.701771
5608600000 -4.0670257 -62.800911
5808550000 -4.0343461 -64.756699
6008500000 -4.0286155 -66.886177
6208450000 -3.9969344 -68.8526
6408400000 -3.9887981 -71.013062
6608350000 -3.9588008 -72.820412
6808300000 -3.9439943 -74.974731
7008250000 -3.9199386 -76.82547
7208200000 -3.8862202 -78.781319
7408150000 -3.8687441 -80.798264
7608100000 -3.8484125 -82.670219
7808050000 -3.8272214 -84.624199
8008000000 -3.8062 -86.399391
8207950000 -3.7694864 -88.413048
8407900000 -3.7554939 -90.178917
8607850000 -3.7197609 -92.079857
8807800000 -3.7088883 -93.956764
9007750000 -3.6666667 -95.722763
9207700000 -3.6573892 -97.476738
9407650000 -3.6260054 -99.273621
9607600000 -3.6112287 -101.04877
9807550000 -3.6049466 -102.83022
10007500000 -3.5588005 -104.49042
10207450000 -3.5747836 -106.276
10407400000 -3.5317087 -107.90862
10607350000 -3.5311 -109.70958
10807300000 -3.4913299 -111.17657
11007250000 -3.474154 -112.9297
11207200000 -3.4635122 -114.50065
11407150000 -3.4393916 -116.20652
11607100000 -3.413455 -117.93837
11807050000 -3.3865473 -119.26054
12007000000 -3.3587062 -121.13251
12206950000 -3.3641055 -122.38412
12406900000 -3.3008463 -124.31051
12606850000 -3.3236747 -125.42998
12806800000 -3.2808177 -127.41729
13006750000 -3.2626748 -128.74797
13206700000 -3.247478 -130.42931
13406650000 -3.2208877 -131.9265
13606600000 -3.2306383 -133.33263
13806550000 -3.1885805 -134.9603
14006500000 -3.204392 -136.36517
14206450000 -3.1452749 -137.88658
14406400000 -3.1666639 -139.25755
14606350000 -3.1273572 -140.73557
14806300000 -3.1387303 -142.29715
15006250000 -3.1008449 -143.68704
15206200000 -3.0845401 -145.1539
15406150000 -3.0721505 -146.46283
15606100000 -3.0693231 -147.97917
15806050000 -3.0634077 -149.40701
16006000000 -3.0224333 -150.75928
16205950000 -3.0351059 -152.13875
16405900000 -2.9903188 -153.46309
16605850000 -3.015877 -154.80577
16805800000 -2.9943337 -156.14551
17005750000 -2.9715054 -157.56052
17205700000 -2.965961 -158.80447
17405650000 -2.9452615 -160.00056
17605600000 -2.9702072 -161.42644
17805550000 -2.9421356 -162.66542
18005500000 -2.9371281 -164.0085
18205450000 -2.9327469 -165.11761
18405400000 -2.9244423 -166.52304
18605350000 -2.9090171 -167.64946
18805300000 -2.8802173 -168.87743
19005250000 -2.9057596 -170.15013
19205200000 -2.8753536 -171.33331
19405150000 -2.8577993 -172.67058
19605100000 -2.8619516 -173.6058
19805050000 -2.834321 -175.13185
20005000000 -2.8544028 -175.93251
20204950000 -2.8264868 -177.44894
20404900000 -2.8327439 -178.3781
20604850000 -2.8130045 -179.72156
20804800000 -2.8052628 179.22897
21004750000 -2.8406022 177.9185
21204700000 -2.7857578 176.69026
21404650000 -2.8071263 175.57198
21604600000 -2.7477572 174.71155
21804550000 -2.8353083 173.11826
22004500000 -2.7608254 172.24638
22204450000 -2.8049507 170.82686
22404400000 -2.7562463 170.21733
22604350000 -2.7922885 168.55925
22804300000 -2.7687831 168.04016
23004250000 -2.7294919 166.55675
23204200000 -2.7615273 165.61499
23404150000 -2.7390392 164.62976
23604100000 -2.7654686 163.33932
23804050000 -2.7370164 162.49437
24004000000 -2.7475672 161.21239
24203950000 -2.7507801 160.33572
24403900000 -2.7357483 159.14784
24603850000 -2.7526171 158.02913
24803800000 -2.7031021 157.20059
25003750000 -2.7399647 155.99406
25203700000 -2.7449422 155.08795
25403650000 -2.7242329 153.6317
25603600000 -2.745924 152.99864
25803550000 -2.6709809 151.70685
26003500000 -2.7483668 151.07419
26203450000 -2.6817756 149.65082
26403400000 -2.7307594 148.7106
26603350000 -2.6717267 147.67528
26803300000 -2.6920927 146.71397
27003250000 -2.6955016 146.10091
27203200000 -2.7012348 144.54166
27403150000 -2.6893163 143.94188
27603100000 -2.6633992 143.09079
27803050000 -2.7419646 141.94463
28003000000 -2.7142103 141.32262
28202950000 -2.7100325 139.90836
28402900000 -2.7169602 139.38925
28602850000 -2.6794109 137.88696
28802800000 -2.7456248 137.02698
29002750000 -2.6289105 136.18671
29202700000 -2.7772312 135.00441
29402650000 -2.6617308 134.59642
29602600000 -2.7742653 132.83479
29802550000 -2.6921747 132.50735
30002500000 -2.7000387 131.08832
30202450000 -2.6742382 130.98456
30402400000 -2.7083902 130.02211
30602350000 -2.7280736 128.33847
30802300000 -2.6283057 128.73003
31002250000 -2.614671 127.41601
31202200000 -2.7736707 127.95726
31402150000 -2.7502313 124.8134
31602100000 -2.8049021 124.99894
31802050000 -2.5974276 123.5202
32002000000 -2.819561 124.05867
32201950000 -2.7217681 121.67255
32401900000 -2.7109096 121.21803
32601850000 -2.7089503 120.46887
32801800000 -2.704669 119.46442
33001750000 -2.8561032 118.44656
33201700000 -2.6105711 117.53783
33401650000 -2.7825937 116.70525
33601600000 -2.6242599 116.50064
33801550000 -2.8031943 114.87099
34001500000 -2.6226952 115.46652
34201450000 -2.6246555 112.88896
34401400000 -2.6114273 114.17326
34601350000 -2.6495821 112.52242
34801300000 -2.795064 111.69485
35001250000 -2.5401394 110.53203
35201200000 -2.6112404 109.57884
35401150000 -2.4324567 111.28497
35601100000 -2.8379462 108.3303
35801050000 -2.6061289 108.21133
36001000000 -2.5865829 105.57382
36200950000 -2.6212404 106.09958
36400900000 -2.5711391 104.53575
36600850000 -2.7121594 103.41297
36800800000 -2.557369 102.77348
37000750000 -2.6280131 101.45176
37200700000 -2.5915208 101.575
37400650000 -2.5531969 100.18848
37600600000 -2.7146761 99.671135
37800550000 -2.450381 98.750435
38000500000 -2.6165771 97.859108
38200450000 -2.4545283 97.894531
38400400000 -2.5308087 96.450813
38600350000 -2.5822763 96.885651
38800300000 -2.4765437 94.259987
39000250000 -2.6271255 95.479614
39200200000 -2.468447 91.942947
39400150000 -2.6202338 92.661896
39600100000 -2.5425422 91.058701
39800050000 -2.5902805 90.508247
40000000000 -2.6154549 89.678787
