!Agilent Technologies,N5227A,US51270434,A.10.00.00
!Agilent N5227A: A.10.00.00
!Date: Monday, March 30, 2026 11:36:15
!Correction: S11(Full 1 Port(1)) 
!S1P File: Measurement: S11:
# Hz S  dB   R 50
10000000 -4.3106275 0.54996759
209950000 -4.2498937 -1.5649314
409900000 -4.2617178 -3.2265463
609850000 -4.256319 -4.8497338
809800000 -4.2550278 -6.502212
1009750000 -4.2644458 -8.0130043
1209700000 -4.2609439 -9.625988
1409650000 -4.2544031 -11.154474
1609600000 -4.2592101 -12.847212
1809550000 -4.2575645 -14.460075
2009500000 -4.2604728 -16.043968
2209450000 -4.2660232 -17.665081
2409400000 -4.2802577 -19.118826
2609350000 -4.2582979 -20.658148
2809300000 -4.2756848 -22.222492
3009250000 -4.2577004 -23.746962
3209200000 -4.2721748 -25.329008
3409150000 -4.2518444 -26.810804
3609100000 -4.2436261 -28.523233
3809050000 -4.2619562 -30.069036
4009000000 -4.2444201 -31.665543
4208950000 -4.2503409 -33.1745
4408900000 -4.2373366 -34.750389
4608850000 -4.2523713 -36.31728
4808800000 -4.2260327 -37.790764
5008750000 -4.2239623 -39.317875
5208700000 -4.2155776 -40.808636
5408650000 -4.2107196 -42.44215
5608600000 -4.2043543 -43.969551
5808550000 -4.1853485 -45.449642
6008500000 -4.2070608 -47.014927
6208450000 -4.1888332 -48.479496
6408400000 -4.1925292 -50.131996
6608350000 -4.1687603 -51.448284
6808300000 -4.1824851 -53.133217
7008250000 -4.1720414 -54.521561
7208200000 -4.1546741 -56.037518
7408150000 -4.1599278 -57.622734
7608100000 -4.1519041 -59.078152
7808050000 -4.1577811 -60.608784
8008000000 -4.1474099 -61.980373
8207950000 -4.1377044 -63.56414
8407900000 -4.1358261 -64.925194
8607850000 -4.1167789 -66.510956
8807800000 -4.1262965 -67.955635
9007750000 -4.1071796 -69.410568
9207700000 -4.1082578 -70.801323
9407650000 -4.0933809 -72.265564
9607600000 -4.0898819 -73.684608
9807550000 -4.1027575 -75.146423
10007500000 -4.0617266 -76.513573
10207450000 -4.0944858 -77.914085
10407400000 -4.0610819 -79.379356
10607350000 -4.081532 -80.872429
10807300000 -4.0454359 -82.122101
11007250000 -4.0462275 -83.608788
11207200000 -4.0466695 -84.920341
11407150000 -4.0404949 -86.399063
11607100000 -4.0364456 -87.923698
11807050000 -4.0029893 -89.0485
12007000000 -4.0091467 -90.732536
12206950000 -3.99106 -91.70285
12406900000 -3.9725971 -93.552025
12606850000 -3.972821 -94.328018
12806800000 -3.9649751 -96.250771
13006750000 -3.9465168 -97.31675
13206700000 -3.9427373 -98.89959
13406650000 -3.9212403 -100.21586
13606600000 -3.9318974 -101.41338
13806550000 -3.9068749 -102.99113
14006500000 -3.9274771 -104.11765
14206450000 -3.8765786 -105.68882
14406400000 -3.8907509 -106.79916
14606350000 -3.8626921 -108.27311
14806300000 -3.884089 -109.58724
15006250000 -3.8511865 -111.00903
15206200000 -3.8481789 -112.38738
15406150000 -3.8294833 -113.53998
15606100000 -3.8312263 -115.01263
15806050000 -3.8351393 -116.28878
16006000000 -3.7983797 -117.64959
16205950000 -3.8101962 -118.85812
16405900000 -3.7674689 -120.23672
16605850000 -3.7839661 -121.40918
16805800000 -3.773484 -122.73951
17005750000 -3.7656014 -124.11129
17205700000 -3.7389629 -125.31288
17405650000 -3.7166064 -126.47836
17605600000 -3.7588263 -127.74537
17805550000 -3.7172713 -129.09212
18005500000 -3.7317991 -130.347
18205450000 -3.7081535 -131.43205
18405400000 -3.7127559 -132.845
18605350000 -3.687428 -133.97856
18805300000 -3.6614373 -135.27495
19005250000 -3.6875484 -136.37587
19205200000 -3.6519384 -137.6535
19405150000 -3.6607952 -139.04567
19605100000 -3.6235082 -139.95567
19805050000 -3.628576 -141.57874
20005000000 -3.6043289 -142.3201
20204950000 -3.6168556 -143.91144
20404900000 -3.5954554 -144.89162
20604850000 -3.5730994 -146.18655
20804800000 -3.5675688 -147.29779
21004750000 -3.587291 -148.39621
21204700000 -3.5574865 -149.98689
21404650000 -3.5676916 -150.98102
21604600000 -3.4827943 -152.02328
21804550000 -3.5994277 -153.25839
22004500000 -3.4924855 -154.66466
22204450000 -3.5588274 -155.82982
22404400000 -3.4686217 -156.76543
22604350000 -3.5477839 -158.32034
22804300000 -3.4825966 -159.02765
23004250000 -3.4670377 -160.58131
23204200000 -3.4705522 -161.55156
23404150000 -3.4399936 -162.70215
23604100000 -3.4734688 -163.8524
23804050000 -3.4271016 -164.89581
24004000000 -3.4410996 -166.18558
24203950000 -3.4315035 -167.16298
24403900000 -3.414871 -168.46268
24603850000 -3.431823 -169.62201
24803800000 -3.3606205 -170.6568
25003750000 -3.4089184 -171.75673
25203700000 -3.3820376 -172.77853
25403650000 -3.4028261 -174.40501
25603600000 -3.3813481 -175.03127
25803550000 -3.3400531 -176.66548
26003500000 -3.3603995 -177.06949
26203450000 -3.3368416 -178.78627
26403400000 -3.3580463 -179.63168
26603350000 -3.2997751 179.10225
26803300000 -3.3236277 178.10466
27003250000 -3.2977383 177.34848
27203200000 -3.3269532 175.71942
27403150000 -3.2910364 175.01147
27603100000 -3.2576289 173.96521
27803050000 -3.3218668 172.89954
28003000000 -3.2710783 172.04886
28202950000 -3.2936349 170.537
28402900000 -3.2517316 170.03583
28602850000 -3.2544584 168.31468
28802800000 -3.3080194 167.52971
29002750000 -3.1686692 166.17393
29202700000 -3.3243916 165.39168
29402650000 -3.159234 164.41687
29602600000 -3.334548 162.99271
29802550000 -3.2020264 162.1626
30002500000 -3.2402043 160.76544
30202450000 -3.158885 160.36397
30402400000 -3.1900625 159.38756
30602350000 -3.2548828 157.75281
30802300000 -3.0971751 157.39403
31002250000 -3.1030536 156.2072
31202200000 -3.1670551 157.08327
31402150000 -3.2499461 153.84158
31602100000 -3.2098806 153.93045
31802050000 -3.0543709 151.71233
32002000000 -3.2093308 153.08966
32201950000 -3.1843359 149.93576
32401900000 -3.1518109 149.35721
32601850000 -3.1059318 148.58633
32801800000 -3.1389177 147.23737
33001750000 -3.2481911 146.59114
33201700000 -3.0355949 144.7827
33401650000 -3.2054989 144.37924
33601600000 -2.989146 143.53796
33801550000 -3.2150164 142.32094
34001500000 -2.9869199 142.24219
34201450000 -3.0816195 139.79091
34401400000 -2.9289856 140.68274
34601350000 -3.0086565 139.15918
34801300000 -3.1545153 138.58557
35001250000 -2.9057815 136.76439
35201200000 -2.9898887 135.7843
35401150000 -2.6931176 137.23003
35601100000 -3.1981504 134.9341
35801050000 -2.8857095 134.21323
36001000000 -2.9768662 131.37669
36200950000 -2.9051349 131.93303
36400900000 -2.8989408 130.05486
36600850000 -3.0411613 129.26685
36800800000 -2.8642983 127.88351
37000750000 -2.9620864 126.7789
37200700000 -2.8537207 126.40512
37400650000 -2.8608499 124.96849
37600600000 -2.9812057 124.54043
37800550000 -2.7528477 122.93304
38000500000 -2.9082046 122.50868
38200450000 -2.7319672 121.91064
38400400000 -2.8109734 120.45164
38600350000 -2.7375181 121.04885
38800300000 -2.7455621 117.90459
39000250000 -2.7849829 119.66632
39200200000 -2.752305 115.59371
39400150000 -2.8286614 116.67934
39600100000 -2.7365818 114.61729
39800050000 -2.8084924 114.43308
40000000000 -2.8126459 113.0864
