!Agilent Technologies,N5227A,US51270434,A.10.00.00
!Agilent N5227A: A.10.00.00
!Date: Monday, March 30, 2026 11:35:26
!Correction: S11(Full 1 Port(1)) 
!S1P File: Measurement: S11:
# Hz S  dB   R 50
10000000 -4.4181418 0.36682001
209950000 -4.3685265 -2.0063093
409900000 -4.3780327 -4.0975223
609850000 -4.373199 -6.0871758
809800000 -4.3697639 -8.1282749
1009750000 -4.3792171 -10.025666
1209700000 -4.3714466 -12.035657
1409650000 -4.363863 -14.004025
1609600000 -4.3615251 -16.031858
1809550000 -4.3597841 -18.079027
2009500000 -4.3578181 -20.050047
2209450000 -4.355536 -22.028467
2409400000 -4.3711009 -23.9133
2609350000 -4.3435869 -25.819254
2809300000 -4.3544378 -27.759188
3009250000 -4.3287616 -29.62809
3209200000 -4.3332849 -31.617216
3409150000 -4.305388 -33.471703
3609100000 -4.2963977 -35.540119
3809050000 -4.3049383 -37.456203
4009000000 -4.2778263 -39.403214
4208950000 -4.2786431 -41.267693
4408900000 -4.2598863 -43.153206
4608850000 -4.263279 -45.083317
4808800000 -4.2319508 -46.856224
5008750000 -4.2201533 -48.77417
5208700000 -4.2077141 -50.57687
5408650000 -4.1914921 -52.532742
5608600000 -4.1757498 -54.38308
5808550000 -4.1511769 -56.139587
6008500000 -4.1546407 -58.062611
6208450000 -4.1287823 -59.776409
6408400000 -4.1261144 -61.727554
6608350000 -4.1006365 -63.341782
6808300000 -4.0959215 -65.314987
7008250000 -4.0769963 -66.978958
7208200000 -4.0547686 -68.768013
7408150000 -4.0420976 -70.581619
7608100000 -4.0248175 -72.325172
7808050000 -4.0196772 -74.10939
8008000000 -4.0005493 -75.743942
8207950000 -3.9733582 -77.615326
8407900000 -3.9686928 -79.192596
8607850000 -3.933356 -80.983795
8807800000 -3.9359658 -82.68428
9007750000 -3.8988569 -84.345734
9207700000 -3.8948674 -85.983047
9407650000 -3.8708034 -87.678192
9607600000 -3.8576665 -89.32209
9807550000 -3.861953 -90.99781
10007500000 -3.8116353 -92.545914
10207450000 -3.842454 -94.19828
10407400000 -3.7951605 -95.758171
10607350000 -3.8061805 -97.473747
10807300000 -3.758672 -98.894005
11007250000 -3.7458251 -100.56879
11207200000 -3.7374058 -102.03756
11407150000 -3.722811 -103.70367
11607100000 -3.7057948 -105.35034
11807050000 -3.672981 -106.62764
12007000000 -3.6540399 -108.45434
12206950000 -3.6453164 -109.58768
12406900000 -3.6043789 -111.53712
12606850000 -3.6051893 -112.53773
12806800000 -3.586663 -114.5425
13006750000 -3.5684104 -115.78803
13206700000 -3.5545614 -117.44644
13406650000 -3.5240457 -118.88752
13606600000 -3.531908 -120.28644
13806550000 -3.4956212 -121.89478
14006500000 -3.5129325 -123.21812
14206450000 -3.4603038 -124.79218
14406400000 -3.4702795 -126.05967
14606350000 -3.4302073 -127.5694
14806300000 -3.4517481 -129.09625
15006250000 -3.4075313 -130.53789
15206200000 -3.3919432 -131.97057
15406150000 -3.3801539 -133.26584
15606100000 -3.3777268 -134.76981
15806050000 -3.3703308 -136.1716
16006000000 -3.3270984 -137.56528
16205950000 -3.3444424 -138.89059
16405900000 -3.2963972 -140.2606
16605850000 -3.3144217 -141.5493
16805800000 -3.294575 -142.94841
17005750000 -3.2764902 -144.33487
17205700000 -3.2570827 -145.59918
17405650000 -3.2410638 -146.84
17605600000 -3.2690136 -148.22908
17805550000 -3.2314286 -149.52155
18005500000 -3.2291722 -150.83022
18205450000 -3.2141891 -151.95219
18405400000 -3.2071266 -153.43074
18605350000 -3.1901894 -154.58243
18805300000 -3.1617622 -155.86906
19005250000 -3.1845195 -157.10139
19205200000 -3.1485782 -158.33716
19405150000 -3.1413476 -159.73273
19605100000 -3.1206946 -160.62791
19805050000 -3.1062806 -162.23857
20005000000 -3.1088486 -163.03413
20204950000 -3.0928712 -164.63145
20404900000 -3.0933237 -165.56404
20604850000 -3.0718377 -166.94962
20804800000 -3.0543315 -168.07309
21004750000 -3.091078 -169.29762
21204700000 -3.0418022 -170.71423
21404650000 -3.0564542 -171.79648
21604600000 -2.9821334 -172.71526
21804550000 -3.0838401 -174.22334
22004500000 -2.991945 -175.30524
22204450000 -3.0478234 -176.68788
22404400000 -2.9773359 -177.44412
22604350000 -3.0311685 -179.043
22804300000 -2.9898827 -179.68207
23004250000 -2.962774 178.81604
23204200000 -2.9827244 177.80705
23404150000 -2.9546139 176.78273
23604100000 -2.9838228 175.49718
23804050000 -2.9520526 174.58461
24004000000 -2.9588387 173.26196
24203950000 -2.9583232 172.30153
24403900000 -2.9356692 171.06485
24603850000 -2.9452968 169.89034
24803800000 -2.8948581 168.98236
25003750000 -2.9356658 167.83331
25203700000 -2.9337282 166.82187
25403650000 -2.9215395 165.30876
25603600000 -2.9237933 164.69225
25803550000 -2.8655047 163.20854
26003500000 -2.9116659 162.66391
26203450000 -2.8656807 161.09666
26403400000 -2.9024363 160.1907
26603350000 -2.848181 159.0986
26803300000 -2.8746092 158.06886
27003250000 -2.8588345 157.41779
27203200000 -2.8800254 155.76794
27403150000 -2.8486993 155.11948
27603100000 -2.8326371 154.23836
27803050000 -2.8966913 153.01442
28003000000 -2.8508666 152.35699
28202950000 -2.8565226 150.89035
28402900000 -2.8572431 150.35216
28602850000 -2.8303084 148.72568
28802800000 -2.8933563 147.80249
29002750000 -2.7647748 146.82643
29202700000 -2.9117842 145.82536
29402650000 -2.7774999 145.1395
29602600000 -2.9150586 143.52534
29802550000 -2.806246 142.97107
30002500000 -2.8317552 141.69763
30202450000 -2.7801061 141.32036
30402400000 -2.8187299 140.4677
30602350000 -2.858711 138.71217
30802300000 -2.7337079 138.70561
31002250000 -2.7321212 137.61118
31202200000 -2.8624825 138.12872
31402150000 -2.8711627 134.96323
31602100000 -2.8842063 135.14478
31802050000 -2.7004158 133.4679
32002000000 -2.8897936 134.14017
32201950000 -2.8186238 131.48547
32401900000 -2.8080328 130.97176
32601850000 -2.801101 130.23822
32801800000 -2.7928588 129.05777
33001750000 -2.9294178 128.31947
33201700000 -2.6907656 126.98834
33401650000 -2.8691592 126.22272
33601600000 -2.6849227 125.87848
33801550000 -2.8686047 124.3112
34001500000 -2.6675506 124.55821
34201450000 -2.7206786 122.27552
34401400000 -2.6667614 123.18395
34601350000 -2.7038751 121.59891
34801300000 -2.8562536 120.96983
35001250000 -2.6050475 119.60233
35201200000 -2.6729136 118.5591
35401150000 -2.4665146 120.19221
35601100000 -2.8923965 117.40787
35801050000 -2.6431098 117.12006
36001000000 -2.6588457 114.51289
36200950000 -2.6612556 115.06956
36400900000 -2.6313798 113.28932
36600850000 -2.7662582 112.27102
36800800000 -2.5993116 111.4088
37000750000 -2.6909149 110.06718
37200700000 -2.6048791 110.07301
37400650000 -2.6141047 108.63354
37600600000 -2.7314246 108.0678
37800550000 -2.4902675 106.9577
38000500000 -2.6462007 106.1621
38200450000 -2.4885628 106.03333
38400400000 -2.5921686 104.52745
38600350000 -2.5741658 105.19202
38800300000 -2.5171068 102.2009
39000250000 -2.6129169 103.79258
39200200000 -2.4997637 99.986031
39400150000 -2.6129739 100.74911
39600100000 -2.5674117 98.935463
39800050000 -2.6119595 98.49102
40000000000 -2.6290984 97.600853
