!Agilent Technologies,N5227A,US51270434,A.10.00.00
!Agilent N5227A: A.10.00.00
!Date: Thursday, February 26, 2026 11:56:34
!Correction: S11(Full 1 Port(1)) 
!S1P File: Measurement: S11:
# Hz S  dB   R 50
10000000 -0.02847993 0.20470108
259950000 -0.0020486314 -2.655031
509900000 -0.0050167292 -5.2775903
759850000 -0.010802113 -7.9107218
1009800000 -0.013524153 -10.481925
1259750000 -0.031056136 -13.038558
1509700000 -0.030759493 -15.64627
1759650000 -0.04404163 -18.212767
2009600000 -0.050597873 -20.774742
2259550000 -0.068189502 -23.318356
2509500000 -0.079906918 -25.799412
2759450000 -0.078491062 -28.380251
3009400000 -0.099775903 -30.927362
3259350000 -0.111262 -33.424686
3509300000 -0.12778278 -35.980881
3759250000 -0.14479156 -38.524242
4009200000 -0.16367692 -41.078827
4259150000 -0.1821636 -43.608673
4509100000 -0.20227768 -46.090904
4759050000 -0.21752098 -48.549675
5009000000 -0.23590127 -51.02795
5258950000 -0.25909361 -53.537247
5508900000 -0.28176281 -55.998013
5758850000 -0.30237925 -58.441368
6008800000 -0.33031115 -60.915058
6258750000 -0.35111487 -63.384041
6508700000 -0.38297802 -65.767761
6758650000 -0.40385741 -68.179649
7008600000 -0.42946857 -70.604614
7258550000 -0.45552215 -72.987869
7508500000 -0.47802052 -75.408394
7758450000 -0.51611972 -77.798759
8008400000 -0.53341347 -80.12114
8258350000 -0.56260842 -82.45771
8508300000 -0.58927679 -84.807442
8758250000 -0.61737049 -87.171745
9008200000 -0.64513487 -89.477478
9258150000 -0.68203121 -91.812088
9508100000 -0.70480621 -94.059067
9758050000 -0.74556547 -96.353256
10008000000 -0.76624858 -98.61422
10257950000 -0.81253499 -100.88783
10507900000 -0.84409517 -103.10134
10757850000 -0.86740708 -105.30245
11007800000 -0.89891058 -107.51323
11257750000 -0.93958282 -109.70369
11507700000 -0.96049201 -111.89339
11757650000 -0.98947936 -114.07005
12007600000 -1.0397086 -116.21257
12257550000 -1.0605034 -118.3819
12507500000 -1.0930563 -120.5215
12757450000 -1.1260151 -122.61972
13007400000 -1.1507313 -124.68105
13257350000 -1.183673 -126.81036
13507300000 -1.2164677 -128.86728
13757250000 -1.2553749 -131.05011
14007200000 -1.2917542 -133.08107
14257150000 -1.3044462 -135.01691
14507100000 -1.3417747 -136.98851
14757050000 -1.3829126 -139.05528
15007000000 -1.4000782 -141.08058
15256950000 -1.4411368 -143.05051
15506900000 -1.4760115 -145.09201
15756850000 -1.5009626 -147.04025
16006800000 -1.5398616 -149.01125
16256750000 -1.5489502 -150.89075
16506700000 -1.5940465 -152.7979
16756650000 -1.6386611 -154.6877
17006600000 -1.6547645 -156.56186
17256550000 -1.6878618 -158.34355
17506500000 -1.7308527 -160.26672
17756450000 -1.7442158 -162.12781
18006400000 -1.7791382 -163.8938
18256350000 -1.8160113 -165.7702
18506300000 -1.8357537 -167.4924
18756250000 -1.8787398 -169.2901
19006200000 -1.8952055 -171.05963
19256150000 -1.9160506 -172.74565
19506100000 -1.9562882 -174.5168
19756050000 -1.9678191 -176.21634
20006000000 -2.0031741 -177.81099
20255950000 -2.0428028 -179.64648
20505900000 -2.0299177 178.79251
20755850000 -2.0751991 177.15828
21005800000 -2.1233683 175.30815
21255750000 -2.1199768 173.79225
21505700000 -2.1694629 172.17075
21755650000 -2.1767402 170.48721
22005600000 -2.1955004 168.97726
22255550000 -2.2256687 167.32214
22505500000 -2.2359486 165.71739
22755450000 -2.2559688 164.29147
23005400000 -2.2857437 162.58597
23255350000 -2.2833142 161.20383
23505300000 -2.3310513 159.71985
23755250000 -2.3459845 158.10451
24005200000 -2.3261166 156.82239
24255150000 -2.3907623 155.20645
24505100000 -2.4035556 153.57364
24755050000 -2.3817582 152.25665
25005000000 -2.4450874 150.67949
25254950000 -2.4575801 149.36551
25504900000 -2.4564993 147.75266
25754850000 -2.5096838 146.34804
26004800000 -2.4571619 145.10275
26254750000 -2.5437191 143.58514
26504700000 -2.5311975 142.37816
26754650000 -2.4824073 140.74586
27004600000 -2.5799122 139.65627
27254550000 -2.5188928 138.21739
27504500000 -2.5757337 136.74013
27754450000 -2.6349027 135.86128
28004400000 -2.5637603 134.21381
28254350000 -2.6120501 133.16599
28504300000 -2.6037738 131.92529
28754250000 -2.573746 130.31548
29004200000 -2.6374493 129.37032
29254150000 -2.5864317 127.85826
29504100000 -2.5951383 126.40858
29754050000 -2.6514444 125.22043
30004000000 -2.5971444 123.59124
30253950000 -2.6388474 122.8308
30503900000 -2.6831222 121.75806
30753850000 -2.6387138 120.03519
31003800000 -2.6560693 119.31106
31253750000 -2.7496576 118.17737
31503700000 -2.7147055 116.7082
31753650000 -2.7192852 116.14473
32003600000 -2.7082872 114.94975
32253550000 -2.6809061 113.56635
32503500000 -2.7029631 112.51095
32753450000 -2.6825416 111.14344
33003400000 -2.7194629 110.16136
33253350000 -2.7140818 109.25321
33503300000 -2.6936903 107.89634
33753250000 -2.7113347 107.33755
34003200000 -2.7001519 106.2347
34253150000 -2.6119556 104.72794
34503100000 -2.5929849 104.46251
34753050000 -2.645472 102.99262
35003000000 -2.5576334 102.05599
35252950000 -2.5053561 101.06969
35502900000 -2.5196493 99.625923
35752850000 -2.5538671 98.468498
36002800000 -2.5342727 97.357628
36252750000 -2.4880841 96.029747
36502700000 -2.5072241 95.196213
36752650000 -2.5357687 93.807922
37002600000 -2.4731715 92.668732
37252550000 -2.510514 91.939148
37502500000 -2.4525042 90.595482
37752450000 -2.450845 89.686066
38002400000 -2.4362714 88.914955
38252350000 -2.4165311 87.071381
38502300000 -2.4150696 86.540665
38752250000 -2.3871157 86.103722
39002200000 -2.3892345 84.409721
39252150000 -2.3615541 83.733337
39502100000 -2.3672647 82.411354
39752050000 -2.3427272 80.989403
40002000000 -2.3756781 80.491821
40251950000 -2.3894122 78.904816
40501900000 -2.3551302 78.103836
40751850000 -2.3463943 77.125557
41001800000 -2.3514397 76.000801
41251750000 -2.3163466 75.066826
41501700000 -2.3698823 74.089096
41751650000 -2.3556283 72.766106
42001600000 -2.3391743 72.311821
42251550000 -2.302428 71.373009
42501500000 -2.3278844 70.345619
42751450000 -2.2997589 69.655121
43001400000 -2.3100758 68.720543
43251350000 -2.2803726 67.457169
43501300000 -2.2893493 66.685974
43751250000 -2.3005753 65.682632
44001200000 -2.2706342 65.09729
44251150000 -2.2709446 63.811684
44501100000 -2.2436147 63.148651
44751050000 -2.2333331 62.149017
45001000000 -2.211467 61.529781
45250950000 -2.1779294 60.165321
45500900000 -2.2189655 59.820881
45750850000 -2.1971474 58.427753
46000800000 -2.1492112 57.485241
46250750000 -2.1673908 57.053047
46500700000 -2.1558402 56.206444
46750650000 -2.0841391 55.009686
47000600000 -2.1690912 54.347565
47250550000 -2.0980663 53.576424
47500500000 -2.1660018 52.412952
47750450000 -2.1523881 51.778091
48000400000 -2.1219716 50.673683
48250350000 -2.1522899 50.179764
48500300000 -2.1186039 49.267021
48750250000 -2.125514 48.549301
49000200000 -2.0919054 47.982887
49250150000 -2.1419454 46.665695
49500100000 -2.0851116 46.190273
49750050000 -2.2012548 45.298519
50000000000 -2.0171032 45.157799
