!Agilent Technologies,N5227A,US51270434,A.10.00.00
!Agilent N5227A: A.10.00.00
!Date: Thursday, February 26, 2026 11:55:22
!Correction: S11(Full 1 Port(1)) 
!S1P File: Measurement: S11:
# Hz S  dB   R 50
10000000 -0.016611783 0.0089117447
259950000 -0.0020259232 -4.2851992
509900000 -0.0097077461 -8.4363184
759850000 -0.027252039 -12.521898
1009800000 -0.035367761 -16.586498
1259750000 -0.062250644 -20.628658
1509700000 -0.079538979 -24.689936
1759650000 -0.10508601 -28.66444
2009600000 -0.13299097 -32.657196
2259550000 -0.160189 -36.553265
2509500000 -0.1946743 -40.390907
2759450000 -0.21383063 -44.252686
3009400000 -0.25261346 -48.091629
3259350000 -0.28184557 -51.805065
3509300000 -0.32179275 -55.512428
3759250000 -0.36524647 -59.207531
4009200000 -0.40687153 -62.846451
4259150000 -0.44690195 -66.411285
4509100000 -0.48884898 -69.930099
4759050000 -0.53125596 -73.337936
5009000000 -0.5724681 -76.749054
5258950000 -0.62604564 -80.124786
5508900000 -0.6622026 -83.434959
5758850000 -0.70349896 -86.620293
6008800000 -0.74873424 -89.841003
6258750000 -0.78713578 -93.00119
6508700000 -0.84310317 -96.024117
6758650000 -0.87629122 -99.040573
7008600000 -0.91901946 -101.9943
7258550000 -0.96037877 -104.9158
7508500000 -1.0013509 -107.81242
7758450000 -1.0483743 -110.65504
8008400000 -1.0715274 -113.36991
8258350000 -1.1102561 -116.09893
8508300000 -1.1412351 -118.79357
8758250000 -1.1779915 -121.47617
9008200000 -1.2098243 -124.02453
9258150000 -1.2574879 -126.65668
9508100000 -1.2847607 -129.13335
9758050000 -1.3271332 -131.59447
10008000000 -1.3603253 -134.02698
10257950000 -1.4020083 -136.4231
10507900000 -1.4381274 -138.74092
10757850000 -1.4608364 -141.02905
11007800000 -1.4914598 -143.26912
11257750000 -1.5290607 -145.54509
11507700000 -1.5490592 -147.72615
11757650000 -1.5795938 -149.88762
12007600000 -1.6149237 -152.02187
12257550000 -1.6328185 -154.16838
12507500000 -1.6639769 -156.23331
12757450000 -1.6945475 -158.30444
13007400000 -1.7194515 -160.25218
13257350000 -1.7466027 -162.26346
13507300000 -1.7728965 -164.23192
13757250000 -1.6958472 -158.79314
14007200000 -1.7458827 -162.05643
14257150000 -1.7783724 -165.20908
14507100000 -1.8229324 -168.3735
14757050000 -1.8711216 -171.59172
15007000000 -1.8924446 -174.67992
15256950000 -1.9334193 -177.76221
15506900000 -1.9599448 -179.83398
15756850000 -1.9745308 178.62552
16006800000 -2.0028119 177.35632
16256750000 -2.0049155 175.72981
16506700000 -2.0407667 174.03297
16756650000 -2.0719941 172.36179
17006600000 -2.0731318 170.79144
17256550000 -2.1078763 169.23747
17506500000 -2.1287997 167.5157
17756450000 -2.1334367 166.00111
18006400000 -2.1597137 164.45831
18256350000 -2.1783516 162.82916
18506300000 -2.1856272 161.37827
18756250000 -2.2173097 159.82127
19006200000 -2.2200003 158.3474
19256150000 -2.232456 156.95363
19506100000 -2.2628448 155.41347
19756050000 -2.2631838 154.01674
20006000000 -2.2904727 152.66245
20255950000 -2.308794 151.17604
20505900000 -2.29547 149.91061
20755850000 -2.3314557 148.48581
21005800000 -2.3460202 146.90446
21255750000 -2.3472238 145.70073
21505700000 -2.3861253 144.29736
21755650000 -2.3825953 142.94225
22005600000 -2.3873663 141.73172
22255550000 -2.3972931 140.3862
22505500000 -2.3940086 139.11299
22755450000 -2.4121702 137.93893
23005400000 -2.4214122 136.46994
23255350000 -2.4231091 135.42561
23505300000 -2.4492018 134.10716
23755250000 -2.4424152 132.77202
24005200000 -2.4308631 131.85745
24255150000 -2.4806783 130.41046
24505100000 -2.4746952 129.07166
24755050000 -2.4569724 128.11287
25005000000 -2.4991457 126.7338
25254950000 -2.5016863 125.6365
25504900000 -2.4858675 124.33805
25754850000 -2.5170157 123.09957
26004800000 -2.4848158 122.28471
26254750000 -2.5429587 120.92122
26504700000 -2.5222082 119.91499
26754650000 -2.4603875 118.79115
27004600000 -2.5534422 117.63781
27254550000 -2.4757037 116.57597
27504500000 -2.5040784 115.33392
27754450000 -2.5832939 114.48003
28004400000 -2.4959459 113.20755
28254350000 -2.5346289 112.29152
28504300000 -2.5297935 111.29254
28754250000 -2.4753165 109.99212
29004200000 -2.54878 109.18972
29254150000 -2.4888475 107.89934
29504100000 -2.4797475 106.7517
29754050000 -2.5421646 105.69294
30004000000 -2.4718215 104.32764
30253950000 -2.5071173 103.88231
30503900000 -2.545001 102.87709
30753850000 -2.4780071 101.47653
31003800000 -2.5219114 100.93916
31253750000 -2.5923848 99.880333
31503700000 -2.5428274 98.740517
31753650000 -2.5656917 98.312065
32003600000 -2.5517666 97.182762
32253550000 -2.5311337 96.072533
32503500000 -2.5326469 95.285576
32753450000 -2.5058002 94.030457
33003400000 -2.5420816 93.218979
33253350000 -2.5404899 92.516502
33503300000 -2.5045183 91.3461
33753250000 -2.5240264 90.934883
34003200000 -2.5001988 89.927628
34253150000 -2.3987584 88.798386
34503100000 -2.4192479 88.616737
34753050000 -2.4329576 87.285835
35003000000 -2.3705008 86.591621
35252950000 -2.3494923 85.763481
35502900000 -2.3154612 84.372589
35752850000 -2.3459368 83.4655
36002800000 -2.3294904 82.608063
36252750000 -2.2895107 81.369087
36502700000 -2.3058195 80.694626
36752650000 -2.3136885 79.508728
37002600000 -2.2573092 78.564316
37252550000 -2.2988205 77.93644
37502500000 -2.2576845 76.549637
37752450000 -2.2591965 75.967918
38002400000 -2.2339799 75.310753
38252350000 -2.1948605 73.649101
38502300000 -2.2331817 73.1203
38752250000 -2.2125189 72.764862
39002200000 -2.1927683 71.385406
39252150000 -2.1674361 70.667587
39502100000 -2.1739008 69.471901
39752050000 -2.1578262 68.468155
40002000000 -2.1544917 65.910721
40251950000 -2.1671574 65.16188
40501900000 -2.1509035 65.658005
40751850000 -2.1594114 65.124176
41001800000 -2.1869986 64.256073
41251750000 -2.1416752 63.538643
41501700000 -2.2026935 62.590698
41751650000 -2.1596808 61.41711
42001600000 -2.1361141 61.062092
42251550000 -2.1161952 59.965157
42501500000 -2.1320939 59.17226
42751450000 -2.1208529 58.549408
43001400000 -2.1239257 57.855984
43251350000 -2.1066928 56.792648
43501300000 -2.1069458 56.385693
43751250000 -2.0912809 55.162956
44001200000 -2.0709181 54.687023
44251150000 -2.0850811 53.521328
44501100000 -2.0494473 53.0331
44751050000 -2.0614054 52.181919
45001000000 -2.0353568 51.445438
45250950000 -2.0103199 50.513927
45500900000 -2.0514255 50.085243
45750850000 -2.0383463 49.003452
46000800000 -1.9996182 48.023392
46250750000 -1.9875203 47.67437
46500700000 -2.000443 46.801453
46750650000 -1.9343327 45.832539
47000600000 -1.9914743 45.627068
47250550000 -1.9299183 44.617493
47500500000 -1.9722189 43.703331
47750450000 -1.9866197 43.115822
48000400000 -1.9539284 41.99535
48250350000 -1.9645027 41.597034
48500300000 -1.9381201 40.792698
48750250000 -1.964993 39.975422
49000200000 -1.9069871 39.708397
49250150000 -1.9388115 38.436531
49500100000 -1.8922685 38.011578
49750050000 -1.9854902 37.191849
50000000000 -1.8285089 36.784824
