!Agilent Technologies,N5227A,US51270434,A.10.00.00
!Agilent N5227A: A.10.00.00
!Date: Thursday, February 26, 2026 11:56:18
!Correction: S11(Full 1 Port(1)) 
!S1P File: Measurement: S11:
# Hz S  dB   R 50
10000000 -0.032934994 0.12985159
259950000 0.0021649469 -2.8775926
509900000 -0.0024109357 -5.6969399
759850000 -0.010032332 -8.4604406
1009800000 -0.018849751 -11.217299
1259750000 -0.031135144 -13.972089
1509700000 -0.034760691 -16.754982
1759650000 -0.046769578 -19.491941
2009600000 -0.062927693 -22.244831
2259550000 -0.076820634 -24.951113
2509500000 -0.091664158 -27.62258
2759450000 -0.08909975 -30.373842
3009400000 -0.11469364 -33.075378
3259350000 -0.12591916 -35.732597
3509300000 -0.1472362 -38.455021
3759250000 -0.16435908 -41.150089
4009200000 -0.18684605 -43.85693
4259150000 -0.20739333 -46.547752
4509100000 -0.23186536 -49.168392
4759050000 -0.2506665 -51.785748
5009000000 -0.27469701 -54.397179
5258950000 -0.3050774 -57.058563
5508900000 -0.32325703 -59.681831
5758850000 -0.35336277 -62.226658
6008800000 -0.38027501 -64.809738
6258750000 -0.40573439 -67.420982
6508700000 -0.4396171 -69.913383
6758650000 -0.45997342 -72.465065
7008600000 -0.49346772 -74.959801
7258550000 -0.52111119 -77.478035
7508500000 -0.54706693 -79.980461
7758450000 -0.58891809 -82.454506
8008400000 -0.60539395 -84.9067
8258350000 -0.63766116 -87.30246
8508300000 -0.6658026 -89.757034
8758250000 -0.70204246 -92.190613
9008200000 -0.72082931 -94.573982
9258150000 -0.76620692 -96.959496
9508100000 -0.7935223 -99.308128
9758050000 -0.82821518 -101.6628
10008000000 -0.86320657 -103.9772
10257950000 -0.9008581 -106.29393
10507900000 -0.93643165 -108.56297
10757850000 -0.96079177 -110.81163
11007800000 -0.99380982 -113.05131
11257750000 -1.0387069 -115.28117
11507700000 -1.057371 -117.51592
11757650000 -1.0867909 -119.72182
12007600000 -1.1356556 -121.90086
12257550000 -1.1570228 -124.10345
12507500000 -1.1928699 -126.23753
12757450000 -1.2237192 -128.36818
13007400000 -1.258462 -130.47881
13257350000 -1.2895774 -132.58769
13507300000 -1.31519 -134.68294
13757250000 -1.2982923 -133.73801
14007200000 -1.3480026 -136.39717
14257150000 -1.3763965 -139.0106
14507100000 -1.4171948 -141.59547
14757050000 -1.4732068 -144.28505
15007000000 -1.5005071 -146.97655
15256950000 -1.5365019 -148.98935
15506900000 -1.5714188 -150.92554
15756850000 -1.5968649 -152.80252
16006800000 -1.6377851 -154.76596
16256750000 -1.6475042 -156.63333
16506700000 -1.6852221 -158.5459
16756650000 -1.734248 -160.42451
17006600000 -1.7412115 -162.27676
17256550000 -1.7811917 -164.06882
17506500000 -1.8193493 -165.93803
17756450000 -1.82891 -167.76443
18006400000 -1.8697436 -169.48927
18256350000 -1.8986884 -171.36107
18506300000 -1.9181108 -173.06047
18756250000 -1.9581027 -174.81273
19006200000 -1.9742562 -176.5444
19256150000 -1.9946401 -178.21461
19506100000 -2.0313935 -179.9572
19756050000 -2.0396724 178.40332
20006000000 -2.0742586 176.82237
20255950000 -2.1082883 175.03326
20505900000 -2.0941377 173.50894
20755850000 -2.1405377 171.89629
21005800000 -2.1821992 170.10765
21255750000 -2.184114 168.59276
21505700000 -2.2267008 167.01662
21755650000 -2.2398646 165.36969
22005600000 -2.2497139 163.93126
22255550000 -2.2747955 162.30469
22505500000 -2.2755189 160.76785
22755450000 -2.3051462 159.39684
23005400000 -2.3315578 157.71716
23255350000 -2.3279874 156.37869
23505300000 -2.3671377 154.90378
23755250000 -2.3849499 153.34119
24005200000 -2.3661442 152.14261
24255150000 -2.4266865 150.54265
24505100000 -2.4327023 148.95604
24755050000 -2.4149096 147.67766
25005000000 -2.4687288 146.16005
25254950000 -2.4807031 144.86047
25504900000 -2.477319 143.2928
25754850000 -2.5265281 141.91469
26004800000 -2.47841 140.76678
26254750000 -2.5511422 139.30615
26504700000 -2.5480297 138.08623
26754650000 -2.4947615 136.5751
27004600000 -2.5981877 135.40295
27254550000 -2.5345471 134.10629
27504500000 -2.5677907 132.62532
27754450000 -2.6364284 131.75372
28004400000 -2.5685687 130.21439
28254350000 -2.6075675 129.1424
28504300000 -2.6067052 127.97513
28754250000 -2.564513 126.41621
29004200000 -2.6217978 125.47447
29254150000 -2.5844893 124.05036
29504100000 -2.5848126 122.65012
29754050000 -2.6388717 121.47598
30004000000 -2.5893977 119.89811
30253950000 -2.603286 119.06569
30503900000 -2.6719444 118.04523
30753850000 -2.6165349 116.47408
31003800000 -2.6436162 115.79433
31253750000 -2.7231572 114.66851
31503700000 -2.6912112 113.26895
31753650000 -2.7130992 112.65716
32003600000 -2.6829135 111.39577
32253550000 -2.6773181 110.22433
32503500000 -2.6760402 109.2385
32753450000 -2.6560583 107.81541
33003400000 -2.6934605 106.79996
33253350000 -2.6886113 105.91459
33503300000 -2.6612098 104.69225
33753250000 -2.6950142 104.23743
34003200000 -2.6531851 102.93034
34253150000 -2.5736775 101.62325
34503100000 -2.5718415 101.45061
34753050000 -2.5973022 99.936386
35003000000 -2.5074012 99.032104
35252950000 -2.4986279 98.155212
35502900000 -2.4811623 96.603172
35752850000 -2.5117137 95.540901
36002800000 -2.4895604 94.48819
36252750000 -2.4560733 93.106918
36502700000 -2.4893723 92.367111
36752650000 -2.4942098 90.94902
37002600000 -2.4194822 89.940956
37252550000 -2.4739637 89.187759
37502500000 -2.430603 87.854614
37752450000 -2.4112096 86.901711
38002400000 -2.4030385 86.124168
38252350000 -2.3725543 84.333649
38502300000 -2.4018497 84.07692
38752250000 -2.3905289 83.409431
39002200000 -2.3563106 81.821915
39252150000 -2.3098497 81.03434
39502100000 -2.327944 79.92054
39752050000 -2.3083789 78.45092
40002000000 -2.3425694 77.629578
40251950000 -2.3433385 76.337395
40501900000 -2.309227 75.651764
40751850000 -2.3185313 74.681175
41001800000 -2.3381782 73.652061
41251750000 -2.2806354 72.814636
41501700000 -2.3172112 71.747589
41751650000 -2.3239622 70.540421
42001600000 -2.2939942 70.094383
42251550000 -2.2629149 68.914024
42501500000 -2.2790012 68.087166
42751450000 -2.2680683 67.515419
43001400000 -2.2650206 66.491982
43251350000 -2.2625973 65.320778
43501300000 -2.2647963 64.644295
43751250000 -2.2709384 63.663673
44001200000 -2.2106872 63.030087
44251150000 -2.2433951 61.817017
44501100000 -2.1857698 61.162632
44751050000 -2.210032 60.223911
45001000000 -2.1703787 59.465248
45250950000 -2.1501806 58.432789
45500900000 -2.1976924 57.951416
45750850000 -2.1625714 56.485855
46000800000 -2.1407409 55.784729
46250750000 -2.1254945 55.218418
46500700000 -2.127281 54.286774
46750650000 -2.046551 53.321106
47000600000 -2.1402485 52.808506
47250550000 -2.0545762 51.784111
47500500000 -2.1156876 50.693382
47750450000 -2.1099744 50.117485
48000400000 -2.0992744 49.048634
48250350000 -2.1111336 48.604046
48500300000 -2.1044493 47.563049
48750250000 -2.0873654 46.786072
49000200000 -2.0444396 46.375198
49250150000 -2.080236 45.190083
49500100000 -2.0413816 44.501335
49750050000 -2.1457598 43.782204
50000000000 -1.9813272 43.75742
