!Agilent Technologies,N5227A,US51270434,A.10.00.00
!Agilent N5227A: A.10.00.00
!Date: Thursday, February 26, 2026 11:55:44
!Correction: S11(Full 1 Port(1)) 
!S1P File: Measurement: S11:
# Hz S  dB   R 50
10000000 -0.010897486 0.049196608
259950000 -0.00027468833 -3.5436726
509900000 -0.0072893645 -7.0128117
759850000 -0.017546767 -10.405762
1009800000 -0.02640925 -13.813658
1259750000 -0.046475187 -17.190779
1509700000 -0.050324451 -20.596087
1759650000 -0.071103305 -23.938694
2009600000 -0.091638207 -27.314997
2259550000 -0.11551396 -30.580854
2509500000 -0.13600375 -33.871014
2759450000 -0.14387493 -37.14642
3009400000 -0.17318955 -40.420906
3259350000 -0.19760591 -43.617165
3509300000 -0.22523677 -46.868031
3759250000 -0.25522402 -50.101349
4009200000 -0.2833946 -53.272484
4259150000 -0.31612006 -56.442665
4509100000 -0.35056555 -59.528069
4759050000 -0.37511691 -62.596329
5009000000 -0.41382271 -65.6315
5258950000 -0.45421255 -68.705215
5508900000 -0.48771545 -71.698219
5758850000 -0.52088338 -74.624733
6008800000 -0.55839252 -77.556709
6258750000 -0.59037727 -80.492897
6508700000 -0.63443768 -83.340721
6758650000 -0.66233069 -86.140732
7008600000 -0.7029863 -88.947914
7258550000 -0.7417419 -91.716095
7508500000 -0.77534217 -94.47876
7758450000 -0.82320589 -97.224556
8008400000 -0.84424263 -99.841217
8258350000 -0.88182169 -102.44199
8508300000 -0.91404915 -105.07758
8758250000 -0.94915593 -107.69092
9008200000 -0.98111701 -110.24112
9258150000 -1.0284613 -112.79771
9508100000 -1.0587385 -115.25701
9758050000 -1.1008308 -117.73598
10008000000 -1.1287571 -120.14665
10257950000 -1.1776186 -122.5553
10507900000 -1.2115585 -124.93165
10757850000 -1.2412776 -127.24574
11007800000 -1.2737688 -129.52133
11257750000 -1.3129911 -131.8293
11507700000 -1.3376758 -134.06743
11757650000 -1.3680755 -136.29297
12007600000 -1.4099489 -138.50314
12257550000 -1.4318348 -140.70219
12507500000 -1.4683137 -142.84666
12757450000 -1.500664 -144.96199
13007400000 -1.5271386 -147.07069
13257350000 -1.5588597 -149.15881
13507300000 -1.586042 -151.20747
13757250000 -1.5379401 -148.00812
14007200000 -1.5861486 -150.96602
14257150000 -1.6244051 -153.85757
14507100000 -1.6633675 -156.75188
14757050000 -1.7158078 -159.69452
15007000000 -1.7414259 -162.56247
15256950000 -1.7865276 -165.4357
15506900000 -1.8246529 -167.47577
15756850000 -1.8347995 -169.16862
16006800000 -1.865416 -170.6723
16256750000 -1.8750558 -172.4135
16506700000 -1.9099689 -174.19759
16756650000 -1.9491675 -176.02928
17006600000 -1.9551528 -177.75117
17256550000 -1.9824054 -179.37964
17506500000 -2.0188646 178.79266
17756450000 -2.0246146 177.11557
18006400000 -2.0569468 175.46715
18256350000 -2.0814083 173.71611
18506300000 -2.0960112 172.151
18756250000 -2.1273549 170.51047
19006200000 -2.141283 168.89528
19256150000 -2.1516078 167.37457
19506100000 -2.1888649 165.72473
19756050000 -2.1876898 164.24197
20006000000 -2.2255149 162.73982
20255950000 -2.2459219 161.14568
20505900000 -2.2372723 159.73929
20755850000 -2.2739675 158.24457
21005800000 -2.3023431 156.54713
21255750000 -2.2965641 155.22404
21505700000 -2.3393168 153.69496
21755650000 -2.3410234 152.22932
22005600000 -2.3506858 150.8989
22255550000 -2.3692272 149.41025
22505500000 -2.3672709 148.02792
22755450000 -2.3843832 146.76233
23005400000 -2.4030197 145.23111
23255350000 -2.4036138 144.06111
23505300000 -2.4361029 142.67622
23755250000 -2.4302566 141.23373
24005200000 -2.4196224 140.1554
24255150000 -2.475451 138.67331
24505100000 -2.4721982 137.21178
24755050000 -2.4504597 136.09462
25005000000 -2.5001664 134.66066
25254950000 -2.5085351 133.49043
25504900000 -2.496418 132.07898
25754850000 -2.5325525 130.77435
26004800000 -2.4968123 129.8241
26254750000 -2.56831 128.38712
26504700000 -2.5512319 127.2794
26754650000 -2.4782283 126.03135
27004600000 -2.588558 124.83303
27254550000 -2.508091 123.67445
27504500000 -2.5419672 122.33366
27754450000 -2.6134081 121.56875
28004400000 -2.5320773 120.12326
28254350000 -2.5786934 119.18434
28504300000 -2.5737045 118.0826
28754250000 -2.5247514 116.64886
29004200000 -2.5873778 115.78368
29254150000 -2.5325587 114.4724
29504100000 -2.5299249 113.19824
29754050000 -2.5858691 112.08804
30004000000 -2.5280247 110.64428
30253950000 -2.5583022 109.97795
30503900000 -2.6049585 108.95548
30753850000 -2.5508554 107.51405
31003800000 -2.5820389 106.94144
31253750000 -2.6552393 105.76543
31503700000 -2.6064832 104.56129
31753650000 -2.6265411 104.07928
32003600000 -2.6069462 102.88982
32253550000 -2.5914328 101.84448
32503500000 -2.5932748 100.83966
32753450000 -2.5806105 99.581711
33003400000 -2.6063724 98.692497
33253350000 -2.6090009 97.977234
33503300000 -2.5820334 96.698242
33753250000 -2.5985174 96.280617
34003200000 -2.5774596 95.249947
34253150000 -2.496105 94.004265
34503100000 -2.4791052 93.701797
34753050000 -2.5086136 92.504539
35003000000 -2.4385819 91.548424
35252950000 -2.4012983 90.647552
35502900000 -2.3808699 89.293137
35752850000 -2.4321983 88.306786
36002800000 -2.4039674 87.365891
36252750000 -2.3607633 86.050987
36502700000 -2.3959215 85.432991
36752650000 -2.3965087 84.082344
37002600000 -2.3308041 83.125793
37252550000 -2.3610904 82.440636
37502500000 -2.3270004 81.10598
37752450000 -2.3275516 80.383675
38002400000 -2.3118386 79.518471
38252350000 -2.2805142 77.838333
38502300000 -2.2790792 77.478539
38752250000 -2.2520752 76.876129
39002200000 -2.2513101 75.646835
39252150000 -2.2474284 74.893623
39502100000 -2.213969 73.714676
39752050000 -2.1908686 72.303925
40002000000 -2.2147565 69.923874
40251950000 -2.2257278 69.130013
40501900000 -2.215138 69.426117
40751850000 -2.225251 68.91275
41001800000 -2.2281129 67.97641
41251750000 -2.1912105 67.03791
41501700000 -2.2411218 66.146416
41751650000 -2.2359245 65.07547
42001600000 -2.2124269 64.64872
42251550000 -2.1874118 63.697334
42501500000 -2.1963797 62.815018
42751450000 -2.1663973 62.04958
43001400000 -2.1672027 61.32988
43251350000 -2.1602294 60.326931
43501300000 -2.180692 59.576321
43751250000 -2.1581984 58.57444
44001200000 -2.1320765 58.088104
44251150000 -2.1498673 56.868118
44501100000 -2.0972641 56.202488
44751050000 -2.1045957 55.470318
45001000000 -2.0977089 54.89333
45250950000 -2.0754409 53.695946
45500900000 -2.0889142 53.34837
45750850000 -2.0714059 51.990215
46000800000 -2.0715454 51.048923
46250750000 -2.0478477 50.590134
46500700000 -2.0420871 49.809467
46750650000 -2.0051429 48.747047
47000600000 -2.0645335 48.361538
47250550000 -2.0037372 47.500237
47500500000 -2.0520506 46.432819
47750450000 -2.0346215 45.93103
48000400000 -2.0004992 44.757153
48250350000 -2.0188262 44.444862
48500300000 -1.9979447 43.556343
48750250000 -2.0125647 42.687344
49000200000 -1.9761264 42.375252
49250150000 -2.010237 40.995293
49500100000 -1.9466021 40.534668
49750050000 -2.0695252 39.965302
50000000000 -1.8726114 39.719559
