!Agilent Technologies,N5227A,US51270434,A.10.00.00
!Agilent N5227A: A.10.00.00
!Date: Thursday, February 26, 2026 11:56:01
!Correction: S11(Full 1 Port(1)) 
!S1P File: Measurement: S11:
# Hz S  dB   R 50
10000000 -0.014056928 0.022759831
259950000 -0.00017837228 -3.1365626
509900000 -0.0038930068 -6.2108283
759850000 -0.01375248 -9.2309532
1009800000 -0.017609598 -12.247366
1259750000 -0.034883421 -15.25544
1509700000 -0.042920921 -18.283842
1759650000 -0.054641861 -21.253403
2009600000 -0.071630128 -24.261055
2259550000 -0.092198692 -27.187166
2509500000 -0.10771086 -30.103537
2759450000 -0.11445212 -33.050915
3009400000 -0.13842945 -36.021107
3259350000 -0.15245679 -38.886742
3509300000 -0.17611906 -41.827465
3759250000 -0.1987341 -44.742451
4009200000 -0.22143464 -47.656921
4259150000 -0.2490676 -50.528973
4509100000 -0.27736729 -53.367409
4759050000 -0.30215749 -56.137047
5009000000 -0.32791573 -58.951035
5258950000 -0.35980886 -61.801586
5508900000 -0.39278492 -64.558655
5758850000 -0.41859791 -67.300758
6008800000 -0.44648808 -70.035042
6258750000 -0.47644547 -72.767899
6508700000 -0.51551211 -75.424438
6758650000 -0.54195124 -78.105438
7008600000 -0.5757156 -80.728287
7258550000 -0.60847735 -83.351929
7508500000 -0.63953501 -85.99649
7758450000 -0.68269253 -88.59848
8008400000 -0.70277548 -91.131844
8258350000 -0.73803896 -93.642212
8508300000 -0.76478934 -96.163284
8758250000 -0.80333543 -98.672836
9008200000 -0.83213854 -101.15546
9258150000 -0.87321037 -103.62942
9508100000 -0.90227443 -106.01747
9758050000 -0.94491559 -108.4425
10008000000 -0.97586685 -110.80871
10257950000 -1.0164725 -113.19245
10507900000 -1.0533581 -115.51208
10757850000 -1.0833597 -117.80801
11007800000 -1.1112653 -120.09035
11257750000 -1.1606812 -122.36308
11507700000 -1.1839705 -124.62075
11757650000 -1.2087193 -126.8348
12007600000 -1.2551748 -129.03674
12257550000 -1.2763507 -131.27364
12507500000 -1.3152996 -133.40674
12757450000 -1.3483727 -135.54869
13007400000 -1.3760127 -137.6597
13257350000 -1.4066874 -139.77397
13507300000 -1.4419674 -141.88496
13757250000 -1.4634374 -143.53438
14007200000 -1.5040624 -145.72414
14257150000 -1.5333099 -148.1013
14507100000 -1.5597149 -150.09944
14757050000 -1.5989401 -152.04343
15007000000 -1.6142257 -153.95892
15256950000 -1.6516858 -155.93555
15506900000 -1.6845161 -157.94469
15756850000 -1.7034732 -159.80037
16006800000 -1.7427832 -161.75693
16256750000 -1.7568145 -163.63547
16506700000 -1.7922944 -165.47935
16756650000 -1.8331232 -167.3237
17006600000 -1.8428532 -169.13954
17256550000 -1.8781558 -170.85548
17506500000 -1.9164339 -172.71902
17756450000 -1.9234818 -174.48032
18006400000 -1.9596362 -176.20973
18256350000 -1.9892805 -177.99336
18506300000 -2.0059228 -179.66533
18756250000 -2.0394232 178.62175
19006200000 -2.0542896 176.93097
19256150000 -2.0720706 175.34775
19506100000 -2.1117713 173.6069
19756050000 -2.1111157 172.03201
20006000000 -2.1512148 170.50972
20255950000 -2.1813245 168.7831
20505900000 -2.1655207 167.30807
20755850000 -2.2069473 165.74306
21005800000 -2.2420688 163.9832
21255750000 -2.2434018 162.57002
21505700000 -2.2848544 161.01967
21755650000 -2.2916667 159.42281
22005600000 -2.3005641 158.04025
22255550000 -2.3265276 156.49634
22505500000 -2.3306527 155.02084
22755450000 -2.3478835 153.67482
23005400000 -2.3731022 152.07449
23255350000 -2.3731587 150.78842
23505300000 -2.4029572 149.36832
23755250000 -2.4111342 147.85809
24005200000 -2.3918877 146.70558
24255150000 -2.4522765 145.13838
24505100000 -2.4578664 143.62051
24755050000 -2.4348273 142.39777
25005000000 -2.4857848 140.9398
25254950000 -2.4991832 139.68643
25504900000 -2.4918094 138.18262
25754850000 -2.5359888 136.86609
26004800000 -2.4879637 135.74435
26254750000 -2.5640616 134.33551
26504700000 -2.5564427 133.12885
26754650000 -2.4879513 131.7321
27004600000 -2.5973046 130.57922
27254550000 -2.5249619 129.35162
27504500000 -2.5691063 127.92305
27754450000 -2.6377115 127.04888
28004400000 -2.5583255 125.60916
28254350000 -2.6061075 124.61237
28504300000 -2.585788 123.47672
28754250000 -2.545248 121.95441
29004200000 -2.6178317 121.03254
29254150000 -2.5596774 119.59227
29504100000 -2.5622001 118.29102
29754050000 -2.6142888 117.14466
30004000000 -2.566047 115.71706
30253950000 -2.5920987 114.87476
30503900000 -2.6532173 113.87315
30753850000 -2.5903964 112.356
31003800000 -2.6237516 111.7542
31253750000 -2.703301 110.66182
31503700000 -2.6585362 109.31883
31753650000 -2.6714151 108.77876
32003600000 -2.6405554 107.585
32253550000 -2.6346276 106.4443
32503500000 -2.6431398 105.35229
32753450000 -2.6166904 104.05173
33003400000 -2.6610866 103.10401
33253350000 -2.6532829 102.17001
33503300000 -2.6295118 100.99194
33753250000 -2.6541524 100.54501
34003200000 -2.6125836 99.446999
34253150000 -2.5521724 98.144753
34503100000 -2.5111809 97.886131
34753050000 -2.570734 96.528999
35003000000 -2.4761474 95.482513
35252950000 -2.4442928 94.619255
35502900000 -2.4418192 93.294533
35752850000 -2.4756656 92.222908
36002800000 -2.4553642 91.236885
36252750000 -2.4173489 90.023575
36502700000 -2.4328401 89.152367
36752650000 -2.4437618 87.843506
37002600000 -2.3830893 86.794769
37252550000 -2.4169211 86.010948
37502500000 -2.3889091 84.630295
37752450000 -2.362745 83.972092
38002400000 -2.3669438 83.16777
38252350000 -2.3606269 81.387642
38502300000 -2.3650215 81.018524
38752250000 -2.3692148 80.314316
39002200000 -2.3328297 78.94342
39252150000 -2.2801661 78.165169
39502100000 -2.2542627 77.072578
39752050000 -2.2582908 75.776947
40002000000 -2.2712772 73.247971
40251950000 -2.284699 72.311485
40501900000 -2.2710023 72.352386
40751850000 -2.2615814 71.703453
41001800000 -2.2824509 70.866905
41251750000 -2.2560761 70.130188
41501700000 -2.299819 69.430656
41751650000 -2.2723417 68.096001
42001600000 -2.2574325 67.698341
42251550000 -2.2166841 66.637428
42501500000 -2.2280924 65.701767
42751450000 -2.2157145 65.108063
43001400000 -2.2257862 64.210175
43251350000 -2.2058072 63.075027
43501300000 -2.2177875 62.310608
43751250000 -2.2203801 61.271191
44001200000 -2.1845095 60.822338
44251150000 -2.2016275 59.510216
44501100000 -2.1478462 58.868153
44751050000 -2.1756618 58.13504
45001000000 -2.1395197 57.349575
45250950000 -2.101336 56.20779
45500900000 -2.1401243 55.774849
45750850000 -2.146987 54.514996
46000800000 -2.0870399 53.679947
46250750000 -2.086308 52.995773
46500700000 -2.0992537 52.124653
46750650000 -2.0364501 51.225563
47000600000 -2.1096246 50.733421
47250550000 -2.038202 49.831348
47500500000 -2.085875 48.742359
47750450000 -2.067209 48.194057
48000400000 -2.0502033 47.098148
48250350000 -2.088392 46.557438
48500300000 -2.0415413 45.786293
48750250000 -2.0438409 44.915943
49000200000 -1.9872744 44.503071
49250150000 -2.0569146 43.320347
49500100000 -2.0092766 42.654179
49750050000 -2.1166584 41.913582
50000000000 -1.9503522 41.850258
