!Agilent Technologies,N5227A,US51270434,A.10.00.00
!Agilent N5227A: A.10.00.00
!Date: Monday, March 30, 2026 11:25:02
!Correction: S11(Full 1 Port(1)) 
!S1P File: Measurement: S11:
# Hz S  dB   R 50
10000000 -23.108999 -1.4869643
209950000 -23.48107 -4.896554
409900000 -23.468191 -10.155453
609850000 -23.331022 -15.016677
809800000 -23.143728 -19.754824
1009750000 -23.002712 -24.020981
1209700000 -22.767994 -28.686699
1409650000 -22.534935 -32.524986
1609600000 -22.2623 -36.775482
1809550000 -21.965986 -40.714664
2009500000 -21.670815 -44.326099
2209450000 -21.357611 -47.53035
2409400000 -21.072475 -50.734676
2609350000 -20.701883 -53.868988
2809300000 -20.414141 -56.745689
3009250000 -20.107044 -59.287334
3209200000 -19.825569 -62.154266
3409150000 -19.482796 -64.372795
3609100000 -19.146456 -66.845901
3809050000 -18.887388 -69.240776
4009000000 -18.535456 -71.34758
4208950000 -18.286425 -73.481003
4408900000 -17.966953 -75.383034
4608850000 -17.706011 -77.437561
4808800000 -17.380516 -79.029945
5008750000 -17.136139 -80.806648
5208700000 -16.872986 -82.477058
5408650000 -16.592836 -84.161987
5608600000 -16.340513 -85.73246
5808550000 -16.082748 -87.149803
6008500000 -15.858174 -89.015045
6208450000 -15.607888 -90.167374
6408400000 -15.379061 -91.753593
6608350000 -15.165409 -92.857239
6808300000 -14.931664 -94.619797
7008250000 -14.714737 -95.751724
7208200000 -14.481344 -97.048271
7408150000 -14.276212 -98.449112
7608100000 -14.087757 -99.720383
7808050000 -13.870445 -101.10446
8008000000 -13.670306 -102.11568
8207950000 -13.474576 -103.47286
8407900000 -13.300671 -104.60227
8607850000 -13.07959 -105.85223
8807800000 -12.920545 -107.04578
9007750000 -12.717025 -108.12023
9207700000 -12.566198 -109.27374
9407650000 -12.384477 -110.47132
9607600000 -12.210258 -111.53476
9807550000 -12.058547 -112.75334
10007500000 -11.871094 -113.65638
10207450000 -11.755157 -115.03075
10407400000 -11.559114 -115.9208
10607350000 -11.424017 -117.19598
10807300000 -11.244381 -118.07679
11007250000 -11.107696 -119.1025
11207200000 -10.96964 -120.22787
11407150000 -10.819151 -121.35607
11607100000 -10.651427 -122.51826
11807050000 -10.519623 -123.22527
12007000000 -10.354641 -124.68559
12206950000 -10.242361 -125.28082
12406900000 -10.070883 -126.69112
12606850000 -9.9923077 -127.27939
12806800000 -9.8318243 -128.71463
13006750000 -9.6967373 -129.49255
13206700000 -9.5828323 -130.69893
13406650000 -9.4499722 -131.58459
13606600000 -9.3543577 -132.55212
13806550000 -9.2067108 -133.65302
14006500000 -9.1245975 -134.60593
14206450000 -8.9566488 -135.6626
14406400000 -8.8765287 -136.52063
14606350000 -8.7372475 -137.56314
14806300000 -8.6599455 -138.63858
15006250000 -8.5170164 -139.69931
15206200000 -8.4122229 -140.71628
15406150000 -8.3032503 -141.62056
15606100000 -8.2099504 -142.67953
15806050000 -8.10429 -143.67522
16006000000 -7.9893141 -144.65808
16205950000 -7.904151 -145.63127
16405900000 -7.7729621 -146.63499
16605850000 -7.7144947 -147.55623
16805800000 -7.6017008 -148.6013
17005750000 -7.5045695 -149.66978
17205700000 -7.4037175 -150.55782
17405650000 -7.307466 -151.44757
17605600000 -7.247179 -152.51984
17805550000 -7.134439 -153.53754
18005500000 -7.0606651 -154.50331
18205450000 -6.9665513 -155.39133
18405400000 -6.8816023 -156.49727
18605350000 -6.7913113 -157.33147
18805300000 -6.6898327 -158.36449
19005250000 -6.6388569 -159.31085
19205200000 -6.5335054 -160.29095
19405150000 -6.4519386 -161.36708
19605100000 -6.3659301 -162.16678
19805050000 -6.2817731 -163.38898
20005000000 -6.2105784 -164.02351
20204950000 -6.1366887 -165.31496
20404900000 -6.0550003 -166.11812
20604850000 -5.9941435 -167.1555
20804800000 -5.9110613 -168.09697
21004750000 -5.8738194 -169.06401
21204700000 -5.767024 -170.2558
21404650000 -5.7159781 -171.08847
21604600000 -5.6145916 -172.005
21804550000 -5.6211357 -173.07303
22004500000 -5.4927297 -174.03922
22204450000 -5.4713621 -175.08977
22404400000 -5.3463702 -175.80367
22604350000 -5.3392253 -177.0511
22804300000 -5.2544236 -177.70567
23004250000 -5.1788573 -178.91328
23204200000 -5.1250672 -179.84653
23404150000 -5.0592065 179.35919
23604100000 -5.0408421 178.23981
23804050000 -4.951344 177.38936
24004000000 -4.9058623 176.28024
24203950000 -4.8474317 175.45851
24403900000 -4.7895751 174.38672
24603850000 -4.7508726 173.42746
24803800000 -4.66366 172.55608
25003750000 -4.6429105 171.60332
25203700000 -4.5913496 170.62753
25403650000 -4.5448618 169.46361
25603600000 -4.5041361 168.73431
25803550000 -4.4260387 167.43536
26003500000 -4.3986845 166.89461
26203450000 -4.339128 165.5741
26403400000 -4.3123193 164.71429
26603350000 -4.2436676 163.72878
26803300000 -4.2167606 162.77451
27003250000 -4.1667047 162.13289
27203200000 -4.1464067 160.72624
27403150000 -4.091311 160.04054
27603100000 -4.0576963 159.07344
27803050000 -4.0535431 158.18723
28003000000 -3.9837549 157.30443
28202950000 -3.9595096 156.15039
28402900000 -3.9119279 155.56578
28602850000 -3.8723624 154.15221
28802800000 -3.8754194 153.26868
29002750000 -3.7890253 152.36659
29202700000 -3.8377163 151.36891
29402650000 -3.7205262 150.68797
29602600000 -3.7887082 149.4588
29802550000 -3.6867399 148.66553
30002500000 -3.6802187 147.63675
30202450000 -3.6113915 147.05672
30402400000 -3.6017509 146.34358
30602350000 -3.6106095 144.87985
30802300000 -3.4843571 144.58099
31002250000 -3.5082519 143.50192
31202200000 -3.5070419 143.50879
31402150000 -3.5008962 141.40305
31602100000 -3.4896901 141.14886
31802050000 -3.366297 139.71768
32002000000 -3.4282186 139.99951
32201950000 -3.3930876 137.88583
32401900000 -3.3510094 137.26732
32601850000 -3.3291543 136.44072
32801800000 -3.2935123 135.52654
33001750000 -3.3542259 134.74954
33201700000 -3.2120595 133.50117
33401650000 -3.2832525 132.83904
33601600000 -3.1401703 132.18683
33801550000 -3.252882 130.98193
34001500000 -3.0938942 130.76436
34201450000 -3.1027884 129.0352
34401400000 -3.0140378 129.4812
34601350000 -3.0697315 127.9398
34801300000 -3.0960274 127.10265
35001250000 -2.9688239 126.04664
35201200000 -2.9831257 124.95095
35401150000 -2.8422899 125.59323
35601100000 -3.1191635 123.79846
35801050000 -2.8926382 123.11737
36001000000 -2.9197562 121.12961
36200950000 -2.8924098 121.07781
36400900000 -2.8647215 119.6827
36600850000 -2.9603295 118.72256
36800800000 -2.840471 117.78513
37000750000 -2.8904138 116.62907
37200700000 -2.8436086 116.35125
37400650000 -2.8337951 115.16767
37600600000 -2.9105475 114.47501
37800550000 -2.7195048 113.49446
38000500000 -2.838537 112.84397
38200450000 -2.6860721 112.07877
38400400000 -2.7528296 111.39441
38600350000 -2.7470407 111.0985
38800300000 -2.6876407 109.16225
39000250000 -2.7477369 109.56512
39200200000 -2.6794066 107.01395
39400150000 -2.7333519 107.35368
39600100000 -2.7211323 105.75907
39800050000 -2.6889849 105.09383
40000000000 -2.7346992 104.46069
