!Agilent Technologies,N5227A,US51270434,A.10.00.00
!Agilent N5227A: A.10.00.00
!Date: Monday, March 30, 2026 11:24:49
!Correction: S11(Full 1 Port(1)) 
!S1P File: Measurement: S11:
# Hz S  dB   R 50
10000000 -24.418674 -2.3127792
209950000 -24.605627 -6.4502959
409900000 -24.567837 -13.257824
609850000 -24.310066 -18.932875
809800000 -24.057228 -24.968388
1009750000 -23.772461 -30.053902
1209700000 -23.40929 -35.448959
1409650000 -23.045227 -40.104259
1609600000 -22.652439 -44.514679
1809550000 -22.203955 -49.037056
2009500000 -21.798592 -52.775085
2209450000 -21.364689 -56.214397
2409400000 -20.997896 -59.67733
2609350000 -20.521065 -62.517311
2809300000 -20.160591 -65.591713
3009250000 -19.761721 -68.008392
3209200000 -19.411047 -70.736984
3409150000 -18.992626 -72.919189
3609100000 -18.606493 -75.192657
3809050000 -18.278044 -77.602013
4009000000 -17.904768 -79.486877
4208950000 -17.596916 -81.582115
4408900000 -17.243137 -83.252701
4608850000 -16.947565 -85.286964
4808800000 -16.602068 -86.737198
5008750000 -16.322842 -88.49482
5208700000 -16.03676 -89.970291
5408650000 -15.736089 -91.627083
5608600000 -15.459296 -93.085983
5808550000 -15.184075 -94.502174
6008500000 -14.941612 -96.076088
6208450000 -14.685909 -97.386627
6408400000 -14.417607 -98.912537
6608350000 -14.208645 -99.895142
6808300000 -13.959457 -101.5476
7008250000 -13.731198 -102.71443
7208200000 -13.492643 -103.91884
7408150000 -13.286164 -105.29258
7608100000 -13.085931 -106.49171
7808050000 -12.859216 -107.75692
8008000000 -12.671211 -108.87309
8207950000 -12.459908 -110.11073
8407900000 -12.276676 -111.18108
8607850000 -12.05023 -112.43987
8807800000 -11.88757 -113.61022
9007750000 -11.677027 -114.654
9207700000 -11.521912 -115.88818
9407650000 -11.334859 -117.01193
9607600000 -11.162647 -118.08989
9807550000 -11.015162 -119.29797
10007500000 -10.820085 -120.22697
10207450000 -10.695858 -121.50688
10407400000 -10.503829 -122.45403
10607350000 -10.371965 -123.66225
10807300000 -10.201277 -124.50969
11007250000 -10.058278 -125.66869
11207200000 -9.9221745 -126.73155
11407150000 -9.7658987 -127.80164
11607100000 -9.6097441 -128.98056
11807050000 -9.4737921 -129.74562
12007000000 -9.309454 -131.09761
12206950000 -9.212924 -131.78218
12406900000 -9.0326433 -133.1376
12606850000 -8.9501553 -133.72472
12806800000 -8.7914238 -135.23567
13006750000 -8.6764393 -136.02628
13206700000 -8.5552254 -137.22035
13406650000 -8.4156208 -138.16496
13606600000 -8.3272953 -139.16801
13806550000 -8.1827278 -140.2571
14006500000 -8.104352 -141.24385
14206450000 -7.9462771 -142.26312
14406400000 -7.8722534 -143.18208
14606350000 -7.7349753 -144.25154
14806300000 -7.6521626 -145.36046
15006250000 -7.5187669 -146.37372
15206200000 -7.4189315 -147.4097
15406150000 -7.3188791 -148.30969
15606100000 -7.2283831 -149.40044
15806050000 -7.1314449 -150.44643
16006000000 -7.0152206 -151.44934
16205950000 -6.9410968 -152.46178
16405900000 -6.8220682 -153.45915
16605850000 -6.7550812 -154.42842
16805800000 -6.6545982 -155.45399
17005750000 -6.5575094 -156.502
17205700000 -6.4742694 -157.44432
17405650000 -6.3810201 -158.43799
17605600000 -6.3198266 -159.4729
17805550000 -6.2107563 -160.43819
18005500000 -6.1424656 -161.46761
18205450000 -6.055594 -162.39714
18405400000 -5.9795799 -163.47015
18605350000 -5.8992586 -164.37659
18805300000 -5.8112869 -165.40895
19005250000 -5.751163 -166.38455
19205200000 -5.6633615 -167.38084
19405150000 -5.5871491 -168.45726
19605100000 -5.5178938 -169.30466
19805050000 -5.4322324 -170.46283
20005000000 -5.3680105 -171.18114
20204950000 -5.3014307 -172.40895
20404900000 -5.2340803 -173.28064
20604850000 -5.1664886 -174.32016
20804800000 -5.1048131 -175.29483
21004750000 -5.067317 -176.28665
21204700000 -4.9744964 -177.42972
21404650000 -4.9248357 -178.34517
21604600000 -4.8368196 -179.22301
21804550000 -4.8386502 179.61569
22004500000 -4.7266364 178.68903
22204450000 -4.7134242 177.6225
22404400000 -4.6070952 176.90292
22604350000 -4.5908065 175.6777
22804300000 -4.5271325 174.97768
23004250000 -4.456933 173.81894
23204200000 -4.4169664 172.84135
23404150000 -4.3541279 172.01033
23604100000 -4.3417349 170.8929
23804050000 -4.263772 170.04131
24004000000 -4.2301683 168.97234
24203950000 -4.1908245 168.12767
24403900000 -4.1367803 167.07256
24603850000 -4.1034608 166.11212
24803800000 -4.0297546 165.22067
25003750000 -4.0138965 164.25859
25203700000 -3.9761558 163.28664
25403650000 -3.9244664 162.14673
25603600000 -3.891809 161.38792
25803550000 -3.8201766 160.17178
26003500000 -3.8100264 159.56448
26203450000 -3.7595272 158.29082
26403400000 -3.7416267 157.41847
26603350000 -3.6790059 156.39258
26803300000 -3.6601017 155.53236
27003250000 -3.6350791 154.7738
27203200000 -3.6059949 153.44342
27403150000 -3.5596666 152.79294
27603100000 -3.5283289 151.84743
27803050000 -3.5330205 150.9545
28003000000 -3.4883204 150.15239
28202950000 -3.4624958 148.93164
28402900000 -3.4325049 148.26437
28602850000 -3.3922377 146.97847
28802800000 -3.3965859 146.09117
29002750000 -3.3306174 145.21208
29202700000 -3.3858571 144.2337
29402650000 -3.2807004 143.52428
29602600000 -3.3522348 142.28903
29802550000 -3.2748878 141.56451
30002500000 -3.2613468 140.54387
30202450000 -3.2066965 140.03072
30402400000 -3.2050583 139.22353
30602350000 -3.2176278 137.78671
30802300000 -3.0993726 137.58249
31002250000 -3.1272879 136.6481
31202200000 -3.1477828 136.35434
31402150000 -3.1422064 134.47348
31602100000 -3.1436784 134.23083
31802050000 -3.0170555 132.94164
32002000000 -3.1226919 132.99489
32201950000 -3.0671351 131.04633
32401900000 -3.0130022 130.49263
32601850000 -3.0280926 129.62134
32801800000 -2.9910977 128.74297
33001750000 -3.077559 127.9444
33201700000 -2.9087007 126.90203
33401650000 -2.9959559 126.09397
33601600000 -2.879755 125.61974
33801550000 -2.9729414 124.43859
34001500000 -2.8294706 124.38051
34201450000 -2.8479922 122.51311
34401400000 -2.7844846 123.01385
34601350000 -2.8292491 121.45623
34801300000 -2.8710747 120.71295
35001250000 -2.7295172 119.59647
35201200000 -2.7434971 118.73488
35401150000 -2.6273682 119.55861
35601100000 -2.9026971 117.49637
35801050000 -2.7109416 116.91521
36001000000 -2.7118585 114.98176
36200950000 -2.7079341 114.77254
36400900000 -2.6689034 113.53762
36600850000 -2.7643259 112.58071
36800800000 -2.6517429 111.73432
37000750000 -2.7126098 110.66555
37200700000 -2.6605392 110.40708
37400650000 -2.6672497 109.19003
37600600000 -2.7451096 108.40446
37800550000 -2.5618806 107.7012
38000500000 -2.6795306 106.91787
38200450000 -2.5524774 106.28357
38400400000 -2.6069951 105.68074
38600350000 -2.6524057 105.11521
38800300000 -2.5605507 103.3795
39000250000 -2.6145546 104.02487
39200200000 -2.5388112 101.30762
39400150000 -2.614485 101.54375
39600100000 -2.6031487 100.20774
39800050000 -2.5895243 99.484482
40000000000 -2.6137543 98.900734
