!Agilent Technologies,N5227A,US51270434,A.10.00.00
!Agilent N5227A: A.10.00.00
!Date: Monday, March 30, 2026 11:24:22
!Correction: S11(Full 1 Port(1)) 
!S1P File: Measurement: S11:
# Hz S  dB   R 50
10000000 -27.209185 -3.2280629
209950000 -26.395397 -19.858414
409900000 -25.329554 -36.50835
609850000 -23.95285 -48.844559
809800000 -22.591372 -58.611595
1009750000 -21.361544 -65.906258
1209700000 -20.166508 -71.887825
1409650000 -19.099016 -76.582329
1609600000 -18.140078 -80.907143
1809550000 -17.226936 -84.6903
2009500000 -16.449619 -87.868782
2209450000 -15.711754 -90.848656
2409400000 -15.057535 -93.615601
2609350000 -14.429667 -96.001175
2809300000 -13.852613 -98.535309
3009250000 -13.314781 -100.63631
3209200000 -12.805809 -102.94648
3409150000 -12.331159 -104.86715
3609100000 -11.886737 -106.89958
3809050000 -11.482691 -108.89725
4009000000 -11.087934 -110.68755
4208950000 -10.731461 -112.58636
4408900000 -10.367367 -114.35324
4608850000 -10.054078 -116.17775
4808800000 -9.7256241 -117.73731
5008750000 -9.4234571 -119.53884
5208700000 -9.1427393 -121.09371
5408650000 -8.8610039 -122.83702
5608600000 -8.6032839 -124.40647
5808550000 -8.3648643 -125.90608
6008500000 -8.1232395 -127.46114
6208450000 -7.9079776 -128.98352
6408400000 -7.6845183 -130.56847
6608350000 -7.4939961 -131.89633
6808300000 -7.282836 -133.49281
7008250000 -7.0978189 -134.8763
7208200000 -6.9063287 -136.2571
7408150000 -6.7308679 -137.7623
7608100000 -6.5697746 -139.13776
7808050000 -6.4034238 -140.54561
8008000000 -6.2534723 -141.86496
8207950000 -6.0910249 -143.20753
8407900000 -5.9533248 -144.54565
8607850000 -5.8002076 -145.88393
8807800000 -5.6698442 -147.23534
9007750000 -5.5300636 -148.49687
9207700000 -5.4140043 -149.87215
9407650000 -5.2919583 -151.19347
9607600000 -5.1781359 -152.51888
9807550000 -5.0668745 -153.82828
10007500000 -4.9667592 -154.98216
10207450000 -4.8662906 -156.39519
10407400000 -4.7683806 -157.53525
10607350000 -4.6752782 -158.86125
10807300000 -4.5822096 -159.90666
11007250000 -4.4990768 -161.15898
11207200000 -4.4124732 -162.37781
11407150000 -4.3295946 -163.58173
11607100000 -4.2392139 -164.74538
11807050000 -4.1742926 -165.81989
12007000000 -4.077755 -167.04108
12206950000 -4.0432611 -168.14554
12406900000 -3.9348717 -169.36293
12606850000 -3.9102471 -170.43513
12806800000 -3.811341 -171.70189
13006750000 -3.7648938 -172.75446
13206700000 -3.7026234 -173.98766
13406650000 -3.6447296 -175.08243
13606600000 -3.6040814 -176.22749
13806550000 -3.5410609 -177.28239
14006500000 -3.5076704 -178.46663
14206450000 -3.442054 -179.45323
14406400000 -3.4142296 179.37622
14606350000 -3.3587925 178.34497
14806300000 -3.3250244 177.14735
15006250000 -3.2714555 176.16495
15206200000 -3.2297297 175.12112
15406150000 -3.2002497 174.0656
15606100000 -3.1713514 172.97133
15806050000 -3.1364214 171.93304
16006000000 -3.0983911 170.89488
16205950000 -3.0791423 169.88589
16405900000 -3.0373623 168.9213
16605850000 -3.0236378 167.85936
16805800000 -2.9828422 166.83429
17005750000 -2.9541619 165.85419
17205700000 -2.9363048 164.89368
17405650000 -2.9175992 163.92432
17605600000 -2.8930008 162.84177
17805550000 -2.8688314 161.92938
18005500000 -2.8429086 160.95978
18205450000 -2.8361897 160.03271
18405400000 -2.8090193 159.04214
18605350000 -2.7928202 158.17319
18805300000 -2.7686937 157.23711
19005250000 -2.7622802 156.27979
19205200000 -2.7390001 155.42024
19405150000 -2.7121265 154.41245
19605100000 -2.7061069 153.64998
19805050000 -2.6794755 152.61752
20005000000 -2.692661 151.86464
20204950000 -2.6609426 150.82005
20404900000 -2.6605701 150.04715
20604850000 -2.6509938 149.01381
20804800000 -2.6378915 148.19319
21004750000 -2.6498034 147.17809
21204700000 -2.6100514 146.36615
21404650000 -2.6215205 145.466
21604600000 -2.591311 144.77083
21804550000 -2.6227379 143.58766
22004500000 -2.5978258 142.96477
22204450000 -2.6111438 141.92378
22404400000 -2.5941536 141.41397
22604350000 -2.5999348 140.26245
22804300000 -2.6007302 139.73611
23004250000 -2.5740778 138.72693
23204200000 -2.5835383 137.95114
23404150000 -2.5820086 137.22748
23604100000 -2.5926247 136.16069
23804050000 -2.5829539 135.60654
24004000000 -2.5862041 134.58218
24203950000 -2.5933893 133.85687
24403900000 -2.5757966 133.05666
24603850000 -2.5902417 132.21997
24803800000 -2.566725 131.57071
25003750000 -2.5878236 130.61482
25203700000 -2.5984242 129.8268
25403650000 -2.5799484 128.94975
25603600000 -2.5953038 128.29785
25803550000 -2.5423169 127.37213
26003500000 -2.5937362 126.75964
26203450000 -2.5631433 125.8447
26403400000 -2.5916641 124.9898
26603350000 -2.5546238 124.27534
26803300000 -2.588486 123.4705
27003250000 -2.5880761 122.96884
27203200000 -2.5903113 121.81303
27403150000 -2.5927758 121.23399
27603100000 -2.5929027 120.55544
27803050000 -2.6407795 119.7077
28003000000 -2.6227348 119.21143
28202950000 -2.6235328 118.25523
28402900000 -2.6353872 117.66095
28602850000 -2.6044469 116.59264
28802800000 -2.6455591 115.8533
29002750000 -2.6257796 115.26978
29202700000 -2.6928566 114.32635
29402650000 -2.6519415 114.07859
29602600000 -2.7113924 112.79881
29802550000 -2.6648507 112.51482
30002500000 -2.6887567 111.56137
30202450000 -2.6721494 111.26595
30402400000 -2.7094483 110.65063
30602350000 -2.7075694 109.44833
30802300000 -2.6843355 109.66515
31002250000 -2.6837239 108.74114
31202200000 -2.7795017 108.6068
31402150000 -2.7408473 106.86209
31602100000 -2.8017631 106.68384
31802050000 -2.6861901 105.84068
32002000000 -2.8418093 105.73869
32201950000 -2.7572801 104.22013
32401900000 -2.7586124 103.85094
32601850000 -2.7709525 103.16591
32801800000 -2.7531714 102.55782
33001750000 -2.8603814 101.71275
33201700000 -2.7097824 101.22688
33401650000 -2.8178422 100.34377
33601600000 -2.7442679 100.26833
33801550000 -2.8198209 98.89061
34001500000 -2.735621 99.140709
34201450000 -2.7173748 97.730446
34401400000 -2.7428319 98.201683
34601350000 -2.7843618 97.058907
34801300000 -2.7970588 96.218452
35001250000 -2.7041166 95.585449
35201200000 -2.7173328 94.781105
35401150000 -2.7097991 95.544426
35601100000 -2.8819964 93.397278
35801050000 -2.7452121 93.336624
36001000000 -2.7263687 91.608795
36200950000 -2.7605908 91.680367
36400900000 -2.7427413 90.546356
36600850000 -2.8111298 89.467133
36800800000 -2.7564366 89.313339
37000750000 -2.8003161 88.295586
37200700000 -2.7850025 88.254189
37400650000 -2.7949412 87.18158
37600600000 -2.8774493 86.350159
37800550000 -2.7027295 86.211868
38000500000 -2.8396337 85.361267
38200450000 -2.7089274 85.055099
38400400000 -2.7842615 84.397934
38600350000 -2.8507631 83.866669
38800300000 -2.7505744 82.535805
39000250000 -2.8697119 82.842773
39200200000 -2.7609377 80.817299
39400150000 -2.8846197 81.021873
39600100000 -2.8605945 79.863319
39800050000 -2.8699539 79.243958
40000000000 -2.9272549 78.649429
