!Agilent Technologies,N5227A,US51270434,A.10.00.00
!Agilent N5227A: A.10.00.00
!Date: Monday, March 30, 2026 11:25:16
!Correction: S11(Full 1 Port(1)) 
!S1P File: Measurement: S11:
# Hz S  dB   R 50
10000000 -20.553848 -1.697561
209950000 -20.617729 -3.1532671
409900000 -20.637587 -6.7108517
609850000 -20.595375 -9.8499746
809800000 -20.515047 -13.221498
1009750000 -20.45252 -15.949579
1209700000 -20.365032 -19.25074
1409650000 -20.280479 -22.094978
1609600000 -20.142864 -25.2038
1809550000 -20.024385 -28.377861
2009500000 -19.885355 -31.187044
2209450000 -19.74826 -33.976421
2409400000 -19.638704 -36.74992
2609350000 -19.416901 -39.315407
2809300000 -19.295471 -41.931137
3009250000 -19.104336 -44.248184
3209200000 -18.964174 -46.844391
3409150000 -18.73638 -49.119133
3609100000 -18.542456 -51.526527
3809050000 -18.380014 -53.798622
4009000000 -18.159979 -56.055382
4208950000 -17.989161 -58.241127
4408900000 -17.774691 -60.213348
4608850000 -17.598806 -62.264374
4808800000 -17.366264 -64.070641
5008750000 -17.190704 -66.033585
5208700000 -16.98851 -67.740524
5408650000 -16.782099 -69.626991
5608600000 -16.595264 -71.24202
5808550000 -16.393927 -72.845261
6008500000 -16.230654 -74.73912
6208450000 -16.034042 -76.17675
6408400000 -15.82917 -77.943863
6608350000 -15.66134 -79.096794
6808300000 -15.48253 -81.080254
7008250000 -15.297444 -82.322029
7208200000 -15.096404 -83.79435
7408150000 -14.948448 -85.295631
7608100000 -14.768843 -86.680275
7808050000 -14.590231 -88.170815
8008000000 -14.429896 -89.298668
8207950000 -14.247375 -90.79908
8407900000 -14.104081 -92.030457
8607850000 -13.900273 -93.434021
8807800000 -13.765073 -94.738052
9007750000 -13.577674 -95.886841
9207700000 -13.456541 -97.107666
9407650000 -13.278379 -98.401588
9607600000 -13.136115 -99.581131
9807550000 -13.004431 -100.84496
10007500000 -12.817554 -101.8493
10207450000 -12.731727 -103.20583
10407400000 -12.528212 -104.3294
10607350000 -12.410942 -105.60153
10807300000 -12.2426 -106.53555
11007250000 -12.118037 -107.71514
11207200000 -11.997673 -108.84428
11407150000 -11.850173 -109.99221
11607100000 -11.708006 -111.30508
11807050000 -11.570101 -112.02351
12007000000 -11.427025 -113.56669
12206950000 -11.308354 -114.15821
12406900000 -11.152659 -115.66003
12606850000 -11.060312 -116.10147
12806800000 -10.920014 -117.82513
13006750000 -10.797815 -118.56228
13206700000 -10.676023 -119.78423
13406650000 -10.535481 -120.74195
13606600000 -10.459529 -121.74188
13806550000 -10.314145 -122.94344
14006500000 -10.236577 -123.79559
14206450000 -10.069528 -124.97506
14406400000 -9.9957905 -125.77248
14606350000 -9.8595276 -126.91409
14806300000 -9.7800579 -127.94819
15006250000 -9.635191 -129.02534
15206200000 -9.5334768 -130.10016
15406150000 -9.4262323 -130.99176
15606100000 -9.3361216 -132.08058
15806050000 -9.2336254 -133.06294
16006000000 -9.1083622 -134.11711
16205950000 -9.0331678 -135.08203
16405900000 -8.8985014 -136.09254
16605850000 -8.8411493 -137.00285
16805800000 -8.7368708 -138.08408
17005750000 -8.6336956 -139.18655
17205700000 -8.5329533 -140.07281
17405650000 -8.426795 -141.00354
17605600000 -8.3746939 -142.03966
17805550000 -8.2525549 -143.01752
18005500000 -8.1783609 -144.00497
18205450000 -8.0848751 -144.87381
18405400000 -8.0025482 -146.0005
18605350000 -7.9000916 -146.86082
18805300000 -7.7943516 -147.96342
19005250000 -7.7393656 -148.81374
19205200000 -7.6339765 -149.83273
19405150000 -7.5554552 -150.92287
19605100000 -7.4608693 -151.71603
19805050000 -7.3694019 -152.9969
20005000000 -7.2780523 -153.57323
20204950000 -7.2197509 -154.88461
20404900000 -7.1291223 -155.67496
20604850000 -7.0541973 -156.73291
20804800000 -6.9687052 -157.62181
21004750000 -6.9341645 -158.53857
21204700000 -6.8268776 -159.83575
21404650000 -6.7660465 -160.61749
21604600000 -6.643261 -161.52434
21804550000 -6.6608968 -162.51282
22004500000 -6.5213695 -163.55344
22204450000 -6.5038548 -164.56984
22404400000 -6.3597775 -165.40106
22604350000 -6.3496833 -166.56178
22804300000 -6.2451711 -167.25385
23004250000 -6.1798267 -168.50043
23204200000 -6.1212001 -169.33716
23404150000 -6.0317798 -170.2334
23604100000 -6.0124412 -171.28345
23804050000 -5.9110837 -172.15729
24004000000 -5.8653402 -173.20703
24203950000 -5.8020444 -174.05861
24403900000 -5.7340765 -175.11314
24603850000 -5.682054 -176.07068
24803800000 -5.5891476 -177.06816
25003750000 -5.5632129 -177.93724
25203700000 -5.5044193 -178.89264
25403650000 -5.4445553 179.92068
25603600000 -5.3919902 179.21887
25803550000 -5.3185306 177.84795
26003500000 -5.2692699 177.32701
26203450000 -5.2116957 175.98203
26403400000 -5.1764569 175.15106
26603350000 -5.0988779 174.02658
26803300000 -5.063921 173.14345
27003250000 -5.006125 172.52736
27203200000 -4.9839916 171.12509
27403150000 -4.9152761 170.40933
27603100000 -4.8557239 169.42429
27803050000 -4.847137 168.5956
28003000000 -4.7661285 167.74356
28202950000 -4.7393188 166.53053
28402900000 -4.6715798 165.89517
28602850000 -4.6479688 164.47627
28802800000 -4.6295309 163.64929
29002750000 -4.5291762 162.64485
29202700000 -4.5849433 161.75987
29402650000 -4.4421425 160.94777
29602600000 -4.5116796 159.79417
29802550000 -4.4068136 158.95877
30002500000 -4.3894849 157.84587
30202450000 -4.2965169 157.26393
30402400000 -4.2762623 156.50665
30602350000 -4.3016615 154.96658
30802300000 -4.1403441 154.47855
31002250000 -4.1362519 153.57672
31202200000 -4.1635618 153.7184
31402150000 -4.1486478 151.62419
31602100000 -4.1127982 151.24272
31802050000 -3.9704874 149.5191
32002000000 -4.0241175 150.01854
32201950000 -4.0020518 147.79996
32401900000 -3.9285915 147.28333
32601850000 -3.9181454 146.37598
32801800000 -3.8657339 145.2347
33001750000 -3.9285781 144.66161
33201700000 -3.7491605 143.07739
33401650000 -3.8284211 142.71298
33601600000 -3.6841149 141.78355
33801550000 -3.7864985 140.74005
34001500000 -3.6209979 140.22835
34201450000 -3.6282644 138.58531
34401400000 -3.5037928 138.86873
34601350000 -3.5796168 137.52982
34801300000 -3.5880232 136.69327
35001250000 -3.4396892 135.46593
35201200000 -3.4637861 134.50867
35401150000 -3.2805648 135.06749
35601100000 -3.5591774 133.21385
35801050000 -3.3167362 132.35477
36001000000 -3.3654501 130.36688
36200950000 -3.308037 130.31577
36400900000 -3.2832031 128.87959
36600850000 -3.3850298 127.87386
36800800000 -3.2314303 126.75834
37000750000 -3.2931287 125.82101
37200700000 -3.2183146 125.30149
37400650000 -3.206949 124.07354
37600600000 -3.2831948 123.4498
37800550000 -3.0795376 122.33548
38000500000 -3.1868589 121.75859
38200450000 -3.0453444 120.72813
38400400000 -3.0866036 120.09855
38600350000 -3.1020608 119.7111
38800300000 -3.0176859 117.77271
39000250000 -3.0500028 118.36397
39200200000 -2.9930387 115.43673
39400150000 -3.0144577 116.00781
39600100000 -3.0358777 114.47422
39800050000 -2.9660478 113.65665
40000000000 -3.0158226 112.94986
