!Agilent Technologies,N5227A,US51270434,A.10.00.00
!Agilent N5227A: A.10.00.00
!Date: Monday, March 30, 2026 11:24:37
!Correction: S11(Full 1 Port(1)) 
!S1P File: Measurement: S11:
# Hz S  dB   R 50
10000000 -25.631201 -1.7623289
209950000 -25.524996 -8.9336805
409900000 -25.33148 -17.399279
609850000 -24.953146 -25.030891
809800000 -24.483356 -32.765663
1009750000 -24.001095 -38.995766
1209700000 -23.424189 -45.10416
1409650000 -22.812496 -50.307953
1609600000 -22.249748 -55.076637
1809550000 -21.629992 -59.505703
2009500000 -21.084164 -63.273823
2209450000 -20.508795 -66.692574
2409400000 -20.041052 -69.991463
2609350000 -19.476599 -72.725861
2809300000 -19.028538 -75.690521
3009250000 -18.542473 -77.978912
3209200000 -18.116852 -80.592361
3409150000 -17.642345 -82.572571
3609100000 -17.235514 -84.729668
3809050000 -16.829884 -86.914207
4009000000 -16.432705 -88.643806
4208950000 -16.083868 -90.644997
4408900000 -15.71943 -92.220039
4608850000 -15.387716 -94.152229
4808800000 -15.029389 -95.528084
5008750000 -14.717788 -97.185585
5208700000 -14.425549 -98.62188
5408650000 -14.116685 -100.1852
5608600000 -13.820161 -101.68024
5808550000 -13.547367 -102.90739
6008500000 -13.285109 -104.51675
6208450000 -13.024565 -105.75423
6408400000 -12.762313 -107.2643
6608350000 -12.541398 -108.32317
6808300000 -12.288203 -109.8708
7008250000 -12.065621 -111.02202
7208200000 -11.821103 -112.22823
7408150000 -11.603885 -113.58547
7608100000 -11.398361 -114.75495
7808050000 -11.18186 -116.07901
8008000000 -10.982506 -117.17038
8207950000 -10.774766 -118.42414
8407900000 -10.59109 -119.54881
8607850000 -10.37877 -120.77984
8807800000 -10.204081 -121.95004
9007750000 -10.010967 -123.08431
9207700000 -9.8481064 -124.27071
9407650000 -9.6753979 -125.42924
9607600000 -9.4996052 -126.47975
9807550000 -9.3536062 -127.79187
10007500000 -9.1719208 -128.69907
10207450000 -9.0508995 -130.05484
10407400000 -8.8756838 -131.0087
10607350000 -8.736331 -132.31197
10807300000 -8.5814409 -133.17941
11007250000 -8.4370766 -134.33354
11207200000 -8.3055363 -135.46146
11407150000 -8.1603451 -136.57481
11607100000 -8.0143661 -137.7532
11807050000 -7.8923664 -138.57706
12007000000 -7.7337494 -139.92662
12206950000 -7.6411357 -140.72456
12406900000 -7.4754581 -142.04945
12606850000 -7.40168 -142.82698
12806800000 -7.2509084 -144.23997
13006750000 -7.1438742 -145.11874
13206700000 -7.0310421 -146.31644
13406650000 -6.9120564 -147.3165
13606600000 -6.8229666 -148.3821
13806550000 -6.6919613 -149.46678
14006500000 -6.6196737 -150.55257
14206450000 -6.4790115 -151.59816
14406400000 -6.4087834 -152.63002
14606350000 -6.2916222 -153.68102
14806300000 -6.2201881 -154.86095
15006250000 -6.1033573 -155.84088
15206200000 -6.0069237 -156.94009
15406150000 -5.9215708 -157.94135
15606100000 -5.83988 -159.04338
15806050000 -5.7554302 -160.12172
16006000000 -5.6572618 -161.1543
16205950000 -5.5846801 -162.22833
16405900000 -5.4815235 -163.23225
16605850000 -5.4285998 -164.26213
16805800000 -5.3415637 -165.31091
17005750000 -5.2637968 -166.44043
17205700000 -5.186182 -167.396
17405650000 -5.1116304 -168.3627
17605600000 -5.0596786 -169.51007
17805550000 -4.9693966 -170.48813
18005500000 -4.9112029 -171.54071
18205450000 -4.8474374 -172.50645
18405400000 -4.7778335 -173.60368
18605350000 -4.7116194 -174.53217
18805300000 -4.63059 -175.57489
19005250000 -4.5899081 -176.57257
19205200000 -4.5172539 -177.56284
19405150000 -4.4578247 -178.68489
19605100000 -4.3960738 -179.52942
19805050000 -4.3266993 179.28806
20005000000 -4.2892566 178.55681
20204950000 -4.2246361 177.29301
20404900000 -4.1743603 176.43407
20604850000 -4.1254401 175.35251
20804800000 -4.0741529 174.3947
21004750000 -4.0539227 173.34256
21204700000 -3.9702971 172.25404
21404650000 -3.9389238 171.29034
21604600000 -3.8632843 170.43486
21804550000 -3.8782129 169.24066
22004500000 -3.7953794 168.36385
22204450000 -3.785866 167.26111
22404400000 -3.7093847 166.5396
22604350000 -3.6984882 165.32893
22804300000 -3.6518819 164.63147
23004250000 -3.5956287 163.47951
23204200000 -3.5774271 162.53839
23404150000 -3.5311401 161.70067
23604100000 -3.5169349 160.56363
23804050000 -3.464596 159.7767
24004000000 -3.4431288 158.67963
24203950000 -3.4204602 157.83075
24403900000 -3.3739221 156.81691
24603850000 -3.3587308 155.82518
24803800000 -3.2989578 154.99219
25003750000 -3.2973948 154.01805
25203700000 -3.2822678 153.05809
25403650000 -3.236398 151.96532
25603600000 -3.2254353 151.20366
25803550000 -3.1621838 150.04118
26003500000 -3.1705909 149.37401
26203450000 -3.1242912 148.21242
26403400000 -3.1237109 147.34546
26603350000 -3.0800562 146.33875
26803300000 -3.0659566 145.46535
27003250000 -3.048038 144.80356
27203200000 -3.0319979 143.51146
27403150000 -3.0065365 142.86443
27603100000 -2.9933681 142.04951
27803050000 -3.0052948 140.96556
28003000000 -2.9738154 140.327
28202950000 -2.9540946 139.18845
28402900000 -2.9402349 138.4731
28602850000 -2.9022796 137.27614
28802800000 -2.9293683 136.35869
29002750000 -2.8659444 135.50128
29202700000 -2.9377258 134.54996
29402650000 -2.8513815 134.04269
29602600000 -2.9323068 132.7356
29802550000 -2.8593736 132.18599
30002500000 -2.8569508 131.06923
30202450000 -2.8174868 130.68114
30402400000 -2.8331308 129.85555
30602350000 -2.8422332 128.51451
30802300000 -2.7682083 128.46883
31002250000 -2.7702053 127.48051
31202200000 -2.8400121 127.23866
31402150000 -2.8278 125.44109
31602100000 -2.8350542 125.06202
31802050000 -2.7170553 123.90652
32002000000 -2.8339391 124.05119
32201950000 -2.7760711 122.12709
32401900000 -2.753757 121.61485
32601850000 -2.7516818 120.84575
32801800000 -2.72241 119.98123
33001750000 -2.8299279 119.1778
33201700000 -2.6584098 118.30796
33401650000 -2.7544446 117.5894
33601600000 -2.6651583 117.2085
33801550000 -2.7502599 115.87423
34001500000 -2.6267302 115.79927
34201450000 -2.6168644 114.1167
34401400000 -2.6059496 114.55719
34601350000 -2.6402104 113.26088
34801300000 -2.6761973 112.39214
35001250000 -2.5595088 111.51532
35201200000 -2.5802131 110.5184
35401150000 -2.4988115 111.2094
35601100000 -2.7163482 109.07169
35801050000 -2.5567408 108.81186
36001000000 -2.5550964 107.02009
36200950000 -2.5726483 106.94297
36400900000 -2.554543 105.64523
36600850000 -2.6286173 104.63734
36800800000 -2.5565693 104.03457
37000750000 -2.6044042 102.99353
37200700000 -2.5611606 102.75237
37400650000 -2.560895 101.66538
37600600000 -2.6698346 100.92151
37800550000 -2.497251 100.30087
38000500000 -2.6087081 99.454758
38200450000 -2.4705117 99.043503
38400400000 -2.5465097 98.402054
38600350000 -2.5687187 98.00679
38800300000 -2.4995067 96.169014
39000250000 -2.5841918 96.624687
39200200000 -2.4880228 94.218765
39400150000 -2.5706987 94.54702
39600100000 -2.5693891 93.158821
39800050000 -2.5525286 92.53672
40000000000 -2.6234503 91.815544
