!Agilent Technologies,N5227A,US51270434,A.10.00.00
!Agilent N5227A: A.10.00.00
!Date: Monday, January 26, 2026 17:26:03
!Correction: S11(Full 1 Port(1)) 
!S1P File: Measurement: S11:
# Hz S  dB   R 50
10000000 -8.5107956 -0.047994841
209950000 -8.3830528 -2.6157141
409900000 -8.3926277 -5.2015791
609850000 -8.3821306 -7.7918558
809800000 -8.3691444 -10.403921
1009750000 -8.336174 -12.860409
1209700000 -8.339469 -15.318941
1409650000 -8.3028631 -17.973457
1609600000 -8.2676859 -20.4048
1809550000 -8.2416067 -22.833237
2009500000 -8.2148829 -25.378748
2209450000 -8.1549768 -27.96982
2409400000 -8.1220722 -30.19595
2609350000 -8.0958977 -32.715572
2809300000 -8.032073 -35.099094
3009250000 -7.9562607 -37.480984
3209200000 -7.9313445 -39.710358
3409150000 -7.8835626 -42.193214
3609100000 -7.7695417 -44.489449
3809050000 -7.7478991 -46.787586
4009000000 -7.6821012 -49.185432
4208950000 -7.6236844 -51.35434
4408900000 -7.5330887 -53.545174
4608850000 -7.4987864 -55.721191
4808800000 -7.4044743 -58.087002
5008750000 -7.3109784 -59.919743
5208700000 -7.2583585 -62.150158
5408650000 -7.1845527 -64.384125
5608600000 -7.0795474 -66.57325
5808550000 -6.9948959 -68.329407
6008500000 -6.9681211 -70.682892
6208450000 -6.8464265 -72.664474
6408400000 -6.7850466 -74.602829
6608350000 -6.7027001 -76.466949
6808300000 -6.6481543 -78.699448
7008250000 -6.5393162 -80.574524
7208200000 -6.4693179 -82.311165
7408150000 -6.4027772 -84.500221
7608100000 -6.301589 -86.267799
7808050000 -6.2258215 -88.135727
8008000000 -6.1577082 -89.879677
8207950000 -6.0793595 -91.972687
8407900000 -5.9620771 -93.435005
8607850000 -5.9214454 -95.391319
8807800000 -5.8372698 -97.287956
9007750000 -5.7427349 -98.972069
9207700000 -5.6559286 -100.54239
9407650000 -5.6277657 -102.39424
9607600000 -5.52213 -104.28121
9807550000 -5.4430308 -105.68867
10007500000 -5.3896389 -107.45261
10207450000 -5.3527021 -109.20803
10407400000 -5.2329788 -110.86205
10607350000 -5.1849546 -112.2431
10807300000 -5.1347318 -114.14651
11007250000 -5.0377364 -115.59654
11207200000 -4.9820175 -117.07103
11407150000 -4.9367681 -118.76665
11607100000 -4.8782415 -120.58412
11807050000 -4.7518711 -121.83608
12007000000 -4.7345939 -123.35774
12206950000 -4.6739073 -125.02351
12406900000 -4.5877638 -126.56538
12606850000 -4.5228214 -127.83684
12806800000 -4.5087967 -129.43784
13006750000 -4.4271874 -131.11212
13206700000 -4.3367615 -132.30379
13406650000 -4.3150983 -133.84752
13606600000 -4.287559 -135.32837
13806550000 -4.1980786 -136.7811
14006500000 -4.1524677 -138.00014
14206450000 -4.1383629 -139.69846
14406400000 -4.054667 -141.07588
14606350000 -3.9974983 -142.18684
14806300000 -3.9968259 -143.78746
15006250000 -3.9380693 -145.3877
15206200000 -3.8127334 -146.65115
15406150000 -3.8119876 -147.659
15606100000 -3.8209925 -149.45456
15806050000 -3.7220724 -150.83469
16006000000 -3.6433082 -151.9001
16205950000 -3.6691535 -153.19646
16405900000 -3.6142914 -154.84045
16605850000 -3.4991074 -155.85275
16805800000 -3.5347958 -157.04196
17005750000 -3.4927576 -158.68523
17205700000 -3.3947034 -159.89777
17405650000 -3.3266616 -160.8483
17605600000 -3.4230747 -162.16753
17805550000 -3.3603511 -163.86357
18005500000 -3.257838 -164.80473
18205450000 -3.2804449 -165.82861
18405400000 -3.3071182 -167.37473
18605350000 -3.1987836 -168.84698
18805300000 -3.1301198 -169.61116
19005250000 -3.2181768 -170.87463
19205200000 -3.1426888 -172.41385
19405150000 -3.0674291 -173.56738
19605100000 -3.0682046 -174.43721
19805050000 -3.0796437 -175.95253
20005000000 -2.9467568 -177.10768
20204950000 -2.9694672 -178.01822
20404900000 -3.0081377 -179.32077
20604850000 -2.918014 179.16963
20804800000 -2.8008058 178.13144
21004750000 -2.9074736 177.57503
21204700000 -2.9480708 175.81821
21404650000 -2.8187981 174.42397
21604600000 -2.7642899 173.7917
21804550000 -2.8888862 172.88914
22004500000 -2.8534014 171.17847
22204450000 -2.7666943 170.1346
22404400000 -2.8003507 169.57021
22604350000 -2.8103986 167.94975
22804300000 -2.7478764 166.80016
23004250000 -2.7062781 165.90166
23204200000 -2.7724414 165.05775
23404150000 -2.695389 163.28253
23604100000 -2.6546793 162.56712
23804050000 -2.7110388 161.88025
24004000000 -2.692661 160.44031
24203950000 -2.6380823 158.99544
24403900000 -2.5959136 158.65126
24603850000 -2.7030501 157.60313
24803800000 -2.6152928 155.92107
25003750000 -2.6026781 155.13332
25203700000 -2.5944378 154.68782
25403650000 -2.6581297 153.36229
25603600000 -2.5883253 151.94348
25803550000 -2.5626824 151.30275
26003500000 -2.5972381 150.339
26203450000 -2.5645947 149.02017
26403400000 -2.5706162 148.05141
26603350000 -2.5476351 147.30411
26803300000 -2.61991 145.75891
27003250000 -2.5010455 144.90721
27203200000 -2.5724924 144.42917
27403150000 -2.563431 143.19774
27603100000 -2.5602276 142.10716
27803050000 -2.4996734 141.35498
28003000000 -2.5033715 141.01355
28202950000 -2.5416682 139.16725
28402900000 -2.4812374 138.49809
28602850000 -2.4991255 137.52353
28802800000 -2.5309448 136.73087
29002750000 -2.515069 135.14848
29202700000 -2.5004003 134.79515
29402650000 -2.523555 134.13542
29602600000 -2.5397539 132.66109
29802550000 -2.530165 132.0612
30002500000 -2.5350823 130.99023
30202450000 -2.5415697 130.33081
30402400000 -2.5040441 128.97861
30602350000 -2.5127783 128.59857
30802300000 -2.5197601 127.53537
31002250000 -2.4969101 126.26957
31202200000 -2.4836686 126.21258
31402150000 -2.4801445 125.19006
31602100000 -2.5594802 124.36645
31802050000 -2.4775982 122.81934
32002000000 -2.4643285 122.93219
32201950000 -2.4887149 121.74157
32401900000 -2.5236185 120.51346
32601850000 -2.4726293 119.79337
32801800000 -2.4734788 119.10132
33001750000 -2.5385919 118.26042
33201700000 -2.4574809 117.24844
33401650000 -2.4862943 116.49694
33601600000 -2.4489245 115.78384
33801550000 -2.5063062 114.6603
34001500000 -2.4000711 114.29437
34201450000 -2.4719658 113.11949
34401400000 -2.4471254 112.23265
34601350000 -2.4185078 111.33617
34801300000 -2.4509556 111.23962
35001250000 -2.4381554 109.70567
35201200000 -2.4499476 108.87016
35401150000 -2.3258822 108.50272
35601100000 -2.4397795 107.7317
35801050000 -2.5001974 106.74335
36001000000 -2.4126945 105.28622
36200950000 -2.4049478 105.31209
36400900000 -2.4264271 103.88021
36600850000 -2.4592485 103.19208
36800800000 -2.4059472 102.31895
37000750000 -2.418627 101.36502
37200700000 -2.4127834 100.66704
37400650000 -2.3567204 99.881378
37600600000 -2.4194899 99.494865
37800550000 -2.4020054 98.227974
38000500000 -2.4674475 97.302551
38200450000 -2.358597 96.968842
38400400000 -2.4751132 96.078812
38600350000 -2.3567281 95.540321
38800300000 -2.3759069 94.393639
39000250000 -2.3760948 94.070396
39200200000 -2.4169903 93.016335
39400150000 -2.3961713 92.339752
39600100000 -2.2952468 91.423851
39800050000 -2.3644264 90.677834
40000000000 -2.3396845 89.454292
