!Agilent Technologies,N5227A,US51270434,A.10.00.00
!Agilent N5227A: A.10.00.00
!Date: Monday, January 26, 2026 17:26:21
!Correction: S11(Full 1 Port(1)) 
!S1P File: Measurement: S11:
# Hz S  dB   R 50
10000000 -8.3280487 -0.0030743578
209950000 -8.2287912 -1.9022536
409900000 -8.234437 -3.8605659
609850000 -8.235096 -5.7885551
809800000 -8.2306747 -7.7759175
1009750000 -8.2122345 -9.5725412
1209700000 -8.2217951 -11.444981
1409650000 -8.1958942 -13.412535
1609600000 -8.1837807 -15.241062
1809550000 -8.1663065 -17.113832
2009500000 -8.1622858 -19.024462
2209450000 -8.1255455 -21.01088
2409400000 -8.1125546 -22.642483
2609350000 -8.107419 -24.600288
2809300000 -8.0725765 -26.475908
3009250000 -8.0255194 -28.295359
3209200000 -8.0280352 -29.979235
3409150000 -8.0106525 -31.937893
3609100000 -7.922987 -33.793968
3809050000 -7.9254947 -35.553562
4009000000 -7.8904891 -37.508343
4208950000 -7.8669 -39.205334
4408900000 -7.8033299 -40.974621
4608850000 -7.7936273 -42.67524
4808800000 -7.7351823 -44.680466
5008750000 -7.667377 -46.10014
5208700000 -7.6494246 -47.912365
5408650000 -7.6009293 -49.784767
5608600000 -7.541894 -51.636955
5808550000 -7.472084 -53.073727
6008500000 -7.4799981 -55.000149
6208450000 -7.3871503 -56.730522
6408400000 -7.3482237 -58.332165
6608350000 -7.2852602 -59.881077
6808300000 -7.2793984 -61.81934
7008250000 -7.1844244 -63.522469
7208200000 -7.1411896 -64.894043
7408150000 -7.1074572 -66.872276
7608100000 -7.0284009 -68.429771
7808050000 -6.9759927 -70.086632
8008000000 -6.9298487 -71.539902
8207950000 -6.8809357 -73.496269
8407900000 -6.7837958 -74.805229
8607850000 -6.7627416 -76.462967
8807800000 -6.7044606 -78.220009
9007750000 -6.6315084 -79.756302
9207700000 -6.553143 -81.118195
9407650000 -6.534802 -82.70134
9607600000 -6.4559445 -84.588509
9807550000 -6.3818731 -85.775925
10007500000 -6.3369761 -87.388802
10207450000 -6.3231287 -88.964432
10407400000 -6.2186251 -90.598145
10607350000 -6.1686954 -91.801193
10807300000 -6.1434445 -93.544983
11007250000 -6.0553002 -95.037331
11207200000 -6.0045614 -96.338051
11407150000 -5.963274 -97.882805
11607100000 -5.9383073 -99.648041
11807050000 -5.8076982 -100.94695
12007000000 -5.7905526 -102.21536
12206950000 -5.7386289 -103.81825
12406900000 -5.6670418 -105.373
12606850000 -5.587276 -106.46058
12806800000 -5.5741277 -108.02317
13006750000 -5.5142946 -109.69238
13206700000 -5.4121556 -110.88229
13406650000 -5.385468 -112.25318
13606600000 -5.3628383 -113.74277
13806550000 -5.2869549 -115.25867
14006500000 -5.2120066 -116.28896
14206450000 -5.2158842 -117.92002
14406400000 -5.128715 -119.39706
14606350000 -5.0592966 -120.40744
14806300000 -5.06143 -121.86874
15006250000 -5.0150743 -123.54434
15206200000 -4.8897362 -124.90312
15406150000 -4.8474188 -125.75007
15606100000 -4.8711858 -127.4762
15806050000 -4.7851176 -128.99873
16006000000 -4.6847162 -130.13846
16205950000 -4.6921234 -131.27673
16405900000 -4.6547127 -132.99361
16605850000 -4.5163007 -134.08385
16805800000 -4.5273433 -135.08681
17005750000 -4.5148959 -136.80171
17205700000 -4.4099402 -138.15222
17405650000 -4.2920527 -139.092
17605600000 -4.3846912 -140.19652
17805550000 -4.3505726 -142.07982
18005500000 -4.2134929 -143.15927
18205450000 -4.2033362 -144.03723
18405400000 -4.2500844 -145.56548
18605350000 -4.1563282 -147.2328
18805300000 -4.035708 -148.04301
19005250000 -4.1190028 -149.12656
19205200000 -4.0625892 -150.81747
19405150000 -3.9685581 -152.11707
19605100000 -3.9337461 -152.92465
19805050000 -3.9653311 -154.44484
20005000000 -3.8228879 -155.84082
20204950000 -3.8020923 -156.71318
20404900000 -3.8437362 -157.93593
20604850000 -3.7669649 -159.60477
20804800000 -3.6063194 -160.81398
21004750000 -3.6621466 -161.18568
21204700000 -3.756557 -162.93831
21404650000 -3.6186984 -164.58621
21604600000 -3.5137761 -165.35835
21804550000 -3.6210513 -166.01006
22004500000 -3.6130898 -167.90665
22204450000 -3.5002446 -169.20882
22404400000 -3.4982846 -169.71707
22604350000 -3.5337069 -171.2963
22804300000 -3.4572854 -172.58415
23004250000 -3.3901348 -173.72885
23204200000 -3.4420106 -174.39641
23404150000 -3.3895912 -176.36627
23604100000 -3.3026085 -177.25549
23804050000 -3.3332026 -177.95901
24004000000 -3.3344784 -179.34903
24203950000 -3.2719393 179.00526
24403900000 -3.1915913 178.43811
24603850000 -3.2961781 177.56696
24803800000 -3.2108581 175.66444
25003750000 -3.1654437 174.73647
25203700000 -3.1332502 174.28383
25403650000 -3.2095098 173.06763
25603600000 -3.140537 171.35518
25803550000 -3.0963361 170.66904
26003500000 -3.1162643 169.68626
26203450000 -3.0784738 168.22934
26403400000 -3.0780408 167.10088
26603350000 -3.0331292 166.37355
26803300000 -3.1132379 164.91249
27003250000 -2.9767749 163.71674
27203200000 -3.0165749 163.18788
27403150000 -3.0139894 161.92311
27603100000 -3.0035727 160.68219
27803050000 -2.934804 159.64998
28003000000 -2.9241621 159.29881
28202950000 -2.9690218 157.49835
28402900000 -2.8771834 156.52902
28602850000 -2.8876269 155.58588
28802800000 -2.9011831 154.78926
29002750000 -2.910352 153.06749
29202700000 -2.8625975 152.57336
29402650000 -2.8767996 151.74118
29602600000 -2.8969204 150.35849
29802550000 -2.8640156 149.53284
30002500000 -2.8710995 148.41888
30202450000 -2.860744 147.65218
30402400000 -2.8343511 146.09445
30602350000 -2.8123806 145.67459
30802300000 -2.8286049 144.61116
31002250000 -2.8151712 143.15341
31202200000 -2.7571683 142.70908
31402150000 -2.7388103 141.85504
31602100000 -2.821027 141.15875
31802050000 -2.7648869 139.26425
32002000000 -2.7030282 139.28203
32201950000 -2.7460766 138.02853
32401900000 -2.7800066 136.75928
32601850000 -2.7175202 135.84015
32801800000 -2.6912713 135.11641
33001750000 -2.7646263 134.27913
33201700000 -2.6857481 132.9958
33401650000 -2.7079532 132.41019
33601600000 -2.6443236 131.3222
33801550000 -2.7183101 130.3502
34001500000 -2.5989017 129.52696
34201450000 -2.6780763 128.58296
34401400000 -2.6348925 127.51429
34601350000 -2.6088841 126.42673
34801300000 -2.6275063 126.27862
35001250000 -2.6183634 124.69107
35201200000 -2.6214502 123.76846
35401150000 -2.4763916 123.20245
35601100000 -2.5701389 122.40352
35801050000 -2.6070106 121.45383
36001000000 -2.556551 119.72372
36200950000 -2.532167 119.70933
36400900000 -2.5625494 118.27492
36600850000 -2.5761909 117.45171
36800800000 -2.5228658 116.34405
37000750000 -2.5392482 115.3946
37200700000 -2.5261278 114.71979
37400650000 -2.4914393 113.65656
37600600000 -2.5218997 113.31151
37800550000 -2.5292544 111.96852
38000500000 -2.5598395 111.0141
38200450000 -2.4605851 110.46018
38400400000 -2.570576 109.53474
38600350000 -2.4384983 108.67564
38800300000 -2.4961765 107.64304
39000250000 -2.4504521 107.03005
39200200000 -2.4733191 106.11018
39400150000 -2.4770603 105.2992
39600100000 -2.3680556 104.34475
39800050000 -2.4314396 103.5448
40000000000 -2.3889945 102.19248
