!Agilent Technologies,N5227A,US51270434,A.10.00.00
!Agilent N5227A: A.10.00.00
!Date: Monday, January 26, 2026 17:26:47
!Correction: S11(Full 1 Port(1)) 
!S1P File: Measurement: S11:
# Hz S  dB   R 50
10000000 -8.0904579 -0.18600741
209950000 -7.9854345 -1.6303279
409900000 -7.9930215 -3.3003902
609850000 -7.9916 -4.979517
809800000 -7.995327 -6.6594014
1009750000 -7.9744954 -8.1900797
1209700000 -7.9891806 -9.785696
1409650000 -7.9724007 -11.534754
1609600000 -7.9631324 -13.104047
1809550000 -7.9495459 -14.71908
2009500000 -7.9575605 -16.354916
2209450000 -7.9246154 -18.094019
2409400000 -7.9138322 -19.47294
2609350000 -7.9228334 -21.194654
2809300000 -7.9005117 -22.797922
3009250000 -7.8554211 -24.410965
3209200000 -7.866416 -25.873302
3409150000 -7.8581343 -27.542604
3609100000 -7.7906256 -29.208216
3809050000 -7.7974315 -30.705299
4009000000 -7.7797117 -32.452812
4208950000 -7.7662816 -33.918262
4408900000 -7.7153878 -35.507027
4608850000 -7.7168336 -36.950413
4808800000 -7.6747513 -38.732189
5008750000 -7.6164346 -40.007668
5208700000 -7.6081567 -41.587933
5408650000 -7.575254 -43.257587
5608600000 -7.5290804 -44.936245
5808550000 -7.4640169 -46.21719
6008500000 -7.4922237 -47.919544
6208450000 -7.4118881 -49.526718
6408400000 -7.3908134 -50.964756
6608350000 -7.3382959 -52.355797
6808300000 -7.3419414 -54.085896
7008250000 -7.2654223 -55.637871
7208200000 -7.2304144 -56.878525
7408150000 -7.2123585 -58.672615
7608100000 -7.152669 -60.098473
7808050000 -7.1102028 -61.612064
8008000000 -7.0707297 -62.930111
8207950000 -7.0443711 -64.755989
8407900000 -6.953783 -65.956978
8607850000 -6.9457169 -67.436531
8807800000 -6.9038544 -69.067108
9007750000 -6.8460402 -70.519485
9207700000 -6.7713275 -71.780106
9407650000 -6.7689381 -73.190468
9607600000 -6.7088137 -74.970589
9807550000 -6.6434255 -76.10479
10007500000 -6.6038213 -77.562218
10207450000 -6.6051483 -78.996323
10407400000 -6.5171409 -80.634521
10607350000 -6.4672155 -81.700409
10807300000 -6.4567647 -83.295525
11007250000 -6.377357 -84.760933
11207200000 -6.3342781 -85.899872
11407150000 -6.3040047 -87.387604
11607100000 -6.2972307 -89.061226
11807050000 -6.1729093 -90.330597
12007000000 -6.1632972 -91.517365
12206950000 -6.1193814 -93.045349
12406900000 -6.0644751 -94.584328
12606850000 -5.9895854 -95.632141
12806800000 -5.979548 -97.027206
13006750000 -5.9449534 -98.664352
13206700000 -5.8345418 -99.78006
13406650000 -5.8153162 -101.02287
13606600000 -5.7980037 -102.44305
13806550000 -5.7297468 -103.9475
14006500000 -5.6585002 -104.91256
14206450000 -5.6642838 -106.46263
14406400000 -5.5943465 -107.92052
14606350000 -5.516952 -108.86061
14806300000 -5.5217209 -110.22225
15006250000 -5.4980326 -111.86617
15206200000 -5.3788795 -113.32166
15406150000 -5.316196 -114.08065
15606100000 -5.364388 -115.65791
15806050000 -5.281395 -117.21915
16006000000 -5.1749539 -118.325
16205950000 -5.1810226 -119.40289
16405900000 -5.157444 -121.09893
16605850000 -5.023963 -122.23325
16805800000 -5.0190854 -123.13937
17005750000 -5.0203385 -124.767
17205700000 -4.9210939 -126.20747
17405650000 -4.7910333 -127.08757
17605600000 -4.8725171 -128.07069
17805550000 -4.8696084 -129.93887
18005500000 -4.7218547 -131.11699
18205450000 -4.6891365 -131.89859
18405400000 -4.7547054 -133.32684
18605350000 -4.6770792 -135.10701
18805300000 -4.5314174 -135.97363
19005250000 -4.6165719 -136.86104
19205200000 -4.5808315 -138.60052
19405150000 -4.4902844 -139.95154
19605100000 -4.4340143 -140.77556
19805050000 -4.4820552 -142.18201
20005000000 -4.3354578 -143.69264
20204950000 -4.293695 -144.50293
20404900000 -4.3509779 -145.65033
20604850000 -4.2859602 -147.31369
20804800000 -4.1069803 -148.64938
21004750000 -4.1280332 -148.95825
21204700000 -4.2557549 -150.59978
21404650000 -4.1249394 -152.35582
21604600000 -3.9958811 -153.22302
21804550000 -4.0835004 -153.63681
22004500000 -4.1000824 -155.57758
22204450000 -3.9839928 -157.02475
22404400000 -3.9543359 -157.54747
22604350000 -4.0172024 -159.01788
22804300000 -3.9292619 -160.39151
23004250000 -3.8567212 -161.6494
23204200000 -3.8923514 -162.17087
23404150000 -3.862355 -164.08778
23604100000 -3.758251 -165.1571
23804050000 -3.7761502 -165.86719
24004000000 -3.7855232 -167.16405
24203950000 -3.7226915 -168.9303
24403900000 -3.620048 -169.59247
24603850000 -3.7270806 -170.2952
24803800000 -3.6503217 -172.27121
25003750000 -3.5976658 -173.29015
25203700000 -3.5417027 -173.8118
25403650000 -3.6270237 -174.89133
25603600000 -3.5710869 -176.72955
25803550000 -3.5012734 -177.50917
26003500000 -3.5193067 -178.35527
26203450000 -3.4790161 -179.87451
26403400000 -3.4752834 178.93124
26603350000 -3.4160814 178.13365
26803300000 -3.5050683 176.78421
27003250000 -3.3663731 175.34901
27203200000 -3.389879 174.91968
27403150000 -3.3932722 173.70277
27603100000 -3.3773634 172.38762
27803050000 -3.3070781 171.21985
28003000000 -3.2738287 170.89301
28202950000 -3.3234212 169.10419
28402900000 -3.2299144 168.02652
28602850000 -3.2405188 167.02249
28802800000 -3.2419429 166.26274
29002750000 -3.2555549 164.40674
29202700000 -3.1872251 163.74377
29402650000 -3.1860144 163.10521
29602600000 -3.2263675 161.67105
29802550000 -3.1662641 160.7793
30002500000 -3.1862056 159.58601
30202450000 -3.1664715 158.84868
30402400000 -3.1461141 157.28465
30602350000 -3.1089072 156.70587
30802300000 -3.1274471 155.60759
31002250000 -3.1230586 154.03609
31202200000 -3.0357902 153.72169
31402150000 -3.0292113 152.74586
31602100000 -3.1035049 152.01541
31802050000 -3.0504079 149.96239
32002000000 -2.9791172 149.95775
32201950000 -3.0095372 148.70607
32401900000 -3.0401194 147.46037
32601850000 -2.9726932 146.44257
32801800000 -2.9466016 145.75282
33001750000 -3.0075626 144.90239
33201700000 -2.9380558 143.33519
33401650000 -2.9546137 142.76999
33601600000 -2.8827572 141.68602
33801550000 -2.9586656 140.72713
34001500000 -2.83868 139.6893
34201450000 -2.8937755 138.72742
34401400000 -2.8581598 137.82486
34601350000 -2.8355999 136.40919
34801300000 -2.8237824 136.37172
35001250000 -2.8283596 134.73718
35201200000 -2.8417552 133.7701
35401150000 -2.670063 132.89542
35601100000 -2.7735214 132.28113
35801050000 -2.7939961 131.32671
36001000000 -2.7813988 129.548
36200950000 -2.7247965 129.38654
36400900000 -2.7509325 127.8171
36600850000 -2.7814071 127.02305
36800800000 -2.7152617 125.91491
37000750000 -2.7303128 124.94093
37200700000 -2.7031014 124.13753
37400650000 -2.6933155 122.94987
37600600000 -2.689141 122.58566
37800550000 -2.6965089 121.19353
38000500000 -2.7526374 120.24797
38200450000 -2.6236501 119.52964
38400400000 -2.7328937 118.67222
38600350000 -2.6014223 117.74802
38800300000 -2.6404161 116.59312
39000250000 -2.5717986 116.23813
39200200000 -2.6356833 115.04266
39400150000 -2.6263697 114.26103
39600100000 -2.5098357 113.13359
39800050000 -2.5494931 112.32327
40000000000 -2.5443172 111.03021
