!Agilent Technologies,N5227A,US51270434,A.10.00.00
!Agilent N5227A: A.10.00.00
!Date: Monday, January 26, 2026 17:24:07
!Correction: S11(Full 1 Port(1)) 
!S1P File: Measurement: S11:
# Hz S  dB   R 50
10000000 -8.5556526 -0.04892638
209950000 -8.4727297 -5.0563445
409900000 -8.4536982 -9.9069595
609850000 -8.4180088 -14.706005
809800000 -8.3524122 -19.4142
1009750000 -8.2697296 -23.952534
1209700000 -8.2145023 -28.529108
1409650000 -8.0984144 -33.070457
1609600000 -7.9903183 -37.379135
1809550000 -7.879858 -41.810326
2009500000 -7.7635002 -45.890446
2209450000 -7.6022534 -49.884632
2409400000 -7.4916172 -53.751347
2609350000 -7.3618965 -57.604279
2809300000 -7.2079782 -61.422787
3009250000 -7.0374584 -64.925385
3209200000 -6.9052076 -68.374016
3409150000 -6.7619615 -71.938332
3609100000 -6.5815964 -75.110573
3809050000 -6.4729733 -78.47625
4009000000 -6.3230457 -81.540726
4208950000 -6.1959438 -84.469543
4408900000 -6.047471 -87.366287
4608850000 -5.9368749 -90.300415
4808800000 -5.7750173 -93.040375
5008750000 -5.6437912 -95.626328
5208700000 -5.5340171 -98.500153
5408650000 -5.400311 -101.14482
5608600000 -5.2653403 -103.54198
5808550000 -5.1571155 -105.78761
6008500000 -5.0657816 -108.42726
6208450000 -4.9291325 -110.6655
6408400000 -4.8406377 -112.91495
6608350000 -4.7479701 -115.01575
6808300000 -4.6522322 -117.47412
7008250000 -4.532649 -119.40359
7208200000 -4.463377 -121.52836
7408150000 -4.3575463 -123.76308
7608100000 -4.2712302 -125.52867
7808050000 -4.1888986 -127.5316
8008000000 -4.1246266 -129.46048
8207950000 -4.0135307 -131.40443
8407900000 -3.938899 -132.98311
8607850000 -3.8864028 -135.06461
8807800000 -3.7982264 -136.79942
9007750000 -3.7215295 -138.51627
9207700000 -3.6562874 -140.15204
9407650000 -3.6275735 -142.06831
9607600000 -3.5332868 -143.78169
9807550000 -3.4837518 -145.22166
10007500000 -3.444994 -147.00827
10207450000 -3.4103816 -148.7356
10407400000 -3.3199608 -150.11023
10607350000 -3.3117011 -151.62411
10807300000 -3.2562685 -153.32394
11007250000 -3.1960287 -154.60114
11207200000 -3.1570482 -156.09441
11407150000 -3.1418183 -157.69505
11607100000 -3.0744386 -159.23964
11807050000 -3.0132959 -160.33974
12007000000 -3.0181468 -161.84297
12206950000 -2.9745984 -163.3042
12406900000 -2.9095926 -164.59668
12606850000 -2.8988354 -165.87289
12806800000 -2.8969181 -167.33807
13006750000 -2.8314357 -168.72231
13206700000 -2.7851758 -169.84471
13406650000 -2.7942665 -171.3268
13606600000 -2.7813904 -172.63747
13806550000 -2.7204819 -173.80759
14006500000 -2.7240834 -175.00182
14206450000 -2.7116675 -176.43954
14406400000 -2.6546974 -177.5349
14606350000 -2.6539333 -178.62894
14806300000 -2.6573882 179.89438
15006250000 -2.609504 178.69286
15206200000 -2.5349693 177.77354
15406150000 -2.5998425 176.67607
15606100000 -2.5865228 175.10306
15806050000 -2.517967 174.11067
16006000000 -2.4944446 173.16905
16205950000 -2.5422707 171.98433
16405900000 -2.4902673 170.66469
16605850000 -2.4365234 169.85588
16805800000 -2.4997461 168.70282
17005750000 -2.4565353 167.39984
17205700000 -2.3919442 166.47873
17405650000 -2.4032035 165.64201
17605600000 -2.4925129 164.30887
17805550000 -2.4160721 163.07332
18005500000 -2.3798902 162.36284
18205450000 -2.442147 161.34892
18405400000 -2.4390702 160.0631
18605350000 -2.349721 159.00975
18805300000 -2.3635848 158.44423
19005250000 -2.4353054 157.13795
19205200000 -2.3491349 155.95724
19405150000 -2.3217859 155.12749
19605100000 -2.3751459 154.33975
19805050000 -2.3572261 153.01724
20005000000 -2.2747161 152.20393
20204950000 -2.3458838 151.44075
20404900000 -2.3636601 150.29735
20604850000 -2.2789981 148.99399
20804800000 -2.2379351 148.38145
21004750000 -2.3826952 147.72867
21204700000 -2.3615544 146.13159
21404650000 -2.2730169 145.186
21604600000 -2.2939432 144.78616
21804550000 -2.4076984 143.71701
22004500000 -2.3419623 142.44702
22204450000 -2.3157156 141.82884
22404400000 -2.380235 141.29741
22604350000 -2.35566 139.76744
22804300000 -2.331248 138.9664
23004250000 -2.3260007 138.43001
23204200000 -2.3957927 137.41826
23404150000 -2.3093305 136.0519
23604100000 -2.3238287 135.63539
23804050000 -2.3800695 134.9883
24004000000 -2.3677008 133.64714
24203950000 -2.3150618 132.71481
24403900000 -2.3379328 132.5155
24603850000 -2.4262576 131.37671
24803800000 -2.3336947 130.1153
25003750000 -2.3641384 129.63237
25203700000 -2.3785014 129.23755
25403650000 -2.4324355 127.92932
25603600000 -2.3558464 126.99951
25803550000 -2.3692083 126.51186
26003500000 -2.4043159 125.46129
26203450000 -2.3838956 124.52458
26403400000 -2.3910227 123.74012
26603350000 -2.4006879 123.16048
26803300000 -2.4492724 121.57903
27003250000 -2.3591619 121.36219
27203200000 -2.4510734 120.80235
27403150000 -2.4424629 119.6965
27603100000 -2.4493346 118.85961
27803050000 -2.4000649 118.40917
28003000000 -2.4501519 117.95476
28202950000 -2.4487398 116.34408
28402900000 -2.4136169 115.99967
28602850000 -2.4336758 115.1869
28802800000 -2.4765968 114.41627
29002750000 -2.4557784 113.1552
29202700000 -2.462642 113.04507
29402650000 -2.5009665 112.33245
29602600000 -2.513037 111.17371
29802550000 -2.5191576 110.74416
30002500000 -2.5122483 109.83336
30202450000 -2.5379248 109.14995
30402400000 -2.4885225 108.24361
30602350000 -2.5245073 108.03691
30802300000 -2.5356817 106.86872
31002250000 -2.5023582 105.94576
31202200000 -2.4951408 105.66798
31402150000 -2.5052571 105.23177
31602100000 -2.5934131 104.30654
31802050000 -2.4902794 103.23206
32002000000 -2.5261123 103.23194
32201950000 -2.5437627 102.18169
32401900000 -2.5611463 101.13511
32601850000 -2.5200117 100.63923
32801800000 -2.5485642 100.00646
33001750000 -2.5846884 99.201424
33201700000 -2.5150454 98.610115
33401650000 -2.5572228 97.959053
33601600000 -2.5284183 97.277771
33801550000 -2.5682611 96.195526
34001500000 -2.4800844 96.096855
34201450000 -2.5576019 94.98481
34401400000 -2.5422366 94.216774
34601350000 -2.5150363 93.509605
34801300000 -2.5654569 93.517311
35001250000 -2.554302 92.180183
35201200000 -2.5571914 91.439232
35401150000 -2.4637778 91.225754
35601100000 -2.5511577 90.447365
35801050000 -2.6131411 89.607201
36001000000 -2.5088065 88.449631
36200950000 -2.5474751 88.374184
36400900000 -2.5666542 87.191307
36600850000 -2.5802131 86.604088
36800800000 -2.5434024 85.961205
37000750000 -2.5437369 85.083366
37200700000 -2.5548441 84.692688
37400650000 -2.4863369 83.90892
37600600000 -2.5772233 83.469368
37800550000 -2.5340455 82.409187
38000500000 -2.5966868 81.600609
38200450000 -2.5142469 81.418282
38400400000 -2.6239667 80.411674
38600350000 -2.5392797 79.988884
38800300000 -2.520293 79.031113
39000250000 -2.5608091 78.745537
39200200000 -2.5630651 77.906876
39400150000 -2.5799212 77.321671
39600100000 -2.4587514 76.766037
39800050000 -2.545789 75.730644
40000000000 -2.512778 74.892174
