!Agilent Technologies,N5227A,US51270434,A.10.00.00
!Agilent N5227A: A.10.00.00
!Date: Thursday, February 26, 2026 12:47:02
!Correction: S11(Full 1 Port(1)) 
!S1P File: Measurement: S11:
# Hz S  dB   R 50
10000000 -9.1073103 0.04816062
259950000 -9.0894938 -4.1441936
509900000 -9.0817337 -8.286706
759850000 -9.0464315 -12.4044
1009800000 -8.9795275 -16.272293
1259750000 -8.9415808 -20.247711
1509700000 -8.8486433 -24.352129
1759650000 -8.7666426 -28.19949
2009600000 -8.7015076 -32.203308
2259550000 -8.5906553 -35.947891
2509500000 -8.5027208 -39.533489
2759450000 -8.3671808 -43.241722
3009400000 -8.2347584 -46.78236
3259350000 -8.1194849 -50.230129
3509300000 -7.9685206 -53.874939
3759250000 -7.8349447 -57.247684
4009200000 -7.710906 -60.719017
4259150000 -7.5523276 -63.972782
4509100000 -7.4290433 -67.072197
4759050000 -7.2697411 -70.231308
5009000000 -7.1198764 -73.157585
5258950000 -6.9972935 -76.269882
5508900000 -6.8233776 -79.238518
5758850000 -6.6838989 -81.995979
6008800000 -6.5700755 -84.942635
6258750000 -6.3988934 -87.72393
6508700000 -6.295084 -90.329926
6758650000 -6.1409559 -93.046631
7008600000 -5.995676 -95.595024
7258550000 -5.8839025 -98.105164
7508500000 -5.7379966 -100.71199
7758450000 -5.6197963 -103.17139
8008400000 -5.4954367 -105.57828
8258350000 -5.3470178 -107.84361
8508300000 -5.2338061 -110.16848
8758250000 -5.1103086 -112.58229
9008200000 -4.9695997 -114.75623
9258150000 -4.9013 -117.10343
9508100000 -4.7806373 -119.3596
9758050000 -4.6824059 -121.44184
10008000000 -4.5941372 -123.5181
10257950000 -4.4845066 -125.63337
10507900000 -4.3874135 -127.75948
10757850000 -4.2863517 -129.84134
11007800000 -4.1955061 -131.84003
11257750000 -4.1424189 -133.93588
11507700000 -4.0392671 -135.80438
11757650000 -3.9391775 -137.66772
12007600000 -3.889673 -139.67397
12257550000 -3.7901685 -141.59795
12507500000 -3.7266836 -143.45872
12757450000 -3.6858149 -145.36029
13007400000 -3.6042454 -147.02783
13257350000 -3.5453737 -148.87691
13507300000 -3.4804723 -150.58798
13757250000 -3.4094751 -152.43651
14007200000 -3.3658574 -154.3405
14257150000 -3.2952743 -155.92522
14507100000 -3.2572753 -157.60538
14757050000 -3.2123592 -159.41203
15007000000 -3.1271341 -160.94501
15256950000 -3.0851357 -162.59883
15506900000 -3.0433621 -164.46538
15756850000 -2.9733357 -166.0123
16006800000 -2.958637 -167.73
16256750000 -2.8694646 -169.25548
16506700000 -2.8612046 -170.79494
16756650000 -2.8564091 -172.50928
17006600000 -2.7728627 -174.00958
17256550000 -2.7714367 -175.3824
17506500000 -2.7545559 -177.14127
17756450000 -2.6817925 -178.53307
18006400000 -2.6813962 -179.99753
18256350000 -2.6580732 178.33951
18506300000 -2.6162932 177.01544
18756250000 -2.6264086 175.53017
19006200000 -2.578023 174.12094
19256150000 -2.5632555 172.85545
19506100000 -2.5533288 171.37184
19756050000 -2.4931033 170.16257
20006000000 -2.5216525 168.89438
20255950000 -2.499023 167.24225
20505900000 -2.4220273 166.23718
20755850000 -2.4600694 164.81703
21005800000 -2.4540069 163.11646
21255750000 -2.4117398 161.97226
21505700000 -2.4473231 160.75354
21755650000 -2.3955038 159.39313
22005600000 -2.379221 158.2569
22255550000 -2.3512371 156.98164
22505500000 -2.2919829 155.55653
22755450000 -2.3140306 154.43822
23005400000 -2.2822313 152.78577
23255350000 -2.2687471 151.72961
23505300000 -2.3445559 150.44994
23755250000 -2.2906199 149.11511
24005200000 -2.2554762 148.31325
24255150000 -2.3240962 146.98828
24505100000 -2.2538457 145.35649
24755050000 -2.2749584 144.27521
25005000000 -2.3064358 143.07504
25254950000 -2.3007443 141.80383
25504900000 -2.3344121 140.66069
25754850000 -2.2965734 139.55
26004800000 -2.3080809 138.77814
26254750000 -2.3402975 137.73442
26504700000 -2.251977 136.21043
26754650000 -2.1955719 135.93135
27004600000 -2.249876 134.65384
27254550000 -2.2053883 132.84341
27504500000 -2.1454637 132.23544
27754450000 -2.2971976 130.88383
28004400000 -2.194382 129.87999
28254350000 -2.2056692 128.8532
28504300000 -2.2359521 127.93102
28754250000 -2.159863 126.44844
29004200000 -2.2177708 125.38685
29254150000 -2.2067358 123.91549
29504100000 -2.2122204 122.79048
29754050000 -2.3055677 121.50631
30004000000 -2.2035992 120.36882
30253950000 -2.2259183 120.15161
30503900000 -2.3310022 119.06194
30753850000 -2.1986659 117.57422
31003800000 -2.2296224 116.87593
31253750000 -2.4063406 116.08768
31503700000 -2.3659551 114.68164
31753650000 -2.3693118 114.3297
32003600000 -2.3669543 113.60492
32253550000 -2.3738215 112.41739
32503500000 -2.3868923 111.14003
32753450000 -2.3713121 110.20564
33003400000 -2.4387345 109.43965
33253350000 -2.404392 108.62055
33503300000 -2.3185408 107.62419
33753250000 -2.4121208 107.36518
34003200000 -2.3793578 106.33551
34253150000 -2.2273049 105.16545
34503100000 -2.1788335 105.54259
34753050000 -2.2555251 103.65603
35003000000 -2.1169465 102.49692
35252950000 -2.0856879 101.40775
35502900000 -2.1432796 100.21904
35752850000 -2.2982688 98.898064
36002800000 -2.2319827 97.931862
36252750000 -2.156045 96.542313
36502700000 -2.3012342 95.479958
36752650000 -2.3523877 94.078308
37002600000 -2.3288071 93.349228
37252550000 -2.3629491 93.149147
37502500000 -2.3122921 91.976944
37752450000 -2.2725155 91.109932
38002400000 -2.242523 89.741234
38252350000 -2.3666067 88.061447
38502300000 -2.4899993 87.99321
38752250000 -2.4543061 88.924271
39002200000 -2.3566542 87.424873
39252150000 -2.3001258 86.399849
39502100000 -2.2226818 84.679337
39752050000 -2.3626971 83.219124
40002000000 -2.4325657 82.864876
40251950000 -2.4291096 81.8349
40501900000 -2.3463295 81.788834
40751850000 -2.2846773 80.32518
41001800000 -2.3473916 78.884865
41251750000 -2.2919276 77.872307
41501700000 -2.4150794 77.191292
41751650000 -2.4150176 76.427704
42001600000 -2.3174322 76.344017
42251550000 -2.1874914 75.036392
42501500000 -2.2962012 72.649353
42751450000 -2.4128394 72.074265
43001400000 -2.5657575 71.699799
43251350000 -2.5326383 71.572052
43501300000 -2.4241602 70.70668
43751250000 -2.3357058 69.222229
44001200000 -2.4111471 67.505775
44251150000 -2.632376 66.517242
44501100000 -2.6402452 66.471947
44751050000 -2.6575263 67.254601
45001000000 -2.3543923 67.092422
45250950000 -2.3334851 64.544479
45500900000 -2.3652873 63.409981
45750850000 -2.5931425 60.446938
46000800000 -2.7979729 63.483776
46250750000 -2.691999 64.333359
46500700000 -2.2583032 63.578503
46750650000 -1.8571134 59.987461
47000600000 -2.3754661 57.342937
47250550000 -2.6849341 56.422588
47500500000 -2.8264546 58.347637
47750450000 -2.4276536 58.484505
48000400000 -2.1537688 56.636395
48250350000 -2.0355961 53.777283
48500300000 -2.4032676 50.3871
48750250000 -2.7473578 49.725147
49000200000 -3.127775 53.342537
49250150000 -2.0676587 55.80307
49500100000 -1.5905615 51.179966
49750050000 -1.6722469 45.911659
50000000000 -2.3770382 34.126484
