!Agilent Technologies,N5227A,US51270434,A.10.00.00
!Agilent N5227A: A.10.00.00
!Date: Thursday, February 26, 2026 12:46:31
!Correction: S11(Full 1 Port(1)) 
!S1P File: Measurement: S11:
# Hz S  dB   R 50
10000000 -9.418993 0.1141366
259950000 -9.3494377 -5.6461134
509900000 -9.3168793 -11.172606
759850000 -9.2512245 -16.701427
1009800000 -9.1351242 -21.915731
1259750000 -9.0510073 -27.185886
1509700000 -8.880558 -32.484333
1759650000 -8.7314119 -37.467236
2009600000 -8.5880384 -42.520657
2259550000 -8.3870192 -47.218616
2509500000 -8.2274332 -51.700954
2759450000 -8.0147352 -56.229992
3009400000 -7.7951989 -60.415817
3259350000 -7.6048789 -64.611099
3509300000 -7.3711638 -68.779015
3759250000 -7.1733465 -72.660568
4009200000 -6.9775753 -76.583504
4259150000 -6.7678885 -80.258141
4509100000 -6.5895262 -83.765808
4759050000 -6.3743591 -87.202141
5009000000 -6.1850276 -90.428032
5258950000 -6.0200338 -93.832832
5508900000 -5.8097186 -96.932076
5758850000 -5.6457176 -99.950974
6008800000 -5.4935808 -103.06924
6258750000 -5.3031831 -105.93898
6508700000 -5.1813326 -108.72398
6758650000 -5.0156355 -111.51164
7008600000 -4.864954 -114.11325
7258550000 -4.7403059 -116.74857
7508500000 -4.5873055 -119.35734
7758450000 -4.4714656 -121.86217
8008400000 -4.339602 -124.27804
8258350000 -4.1988292 -126.53554
8508300000 -4.097631 -128.91182
8758250000 -3.9736011 -131.27908
9008200000 -3.8478718 -133.39903
9258150000 -3.7774777 -135.81757
9508100000 -3.6703911 -138.02309
9758050000 -3.590405 -140.04031
10008000000 -3.5103087 -142.16402
10257950000 -3.4192433 -144.14961
10507900000 -3.3415058 -146.21974
10757850000 -3.250756 -148.19987
11007800000 -3.1762471 -150.17389
11257750000 -3.1371901 -152.21606
11507700000 -3.0538905 -153.99837
11757650000 -2.9802978 -155.72708
12007600000 -2.9380987 -157.69614
12257550000 -2.8608339 -159.49806
12507500000 -2.823267 -161.32051
12757450000 -2.7960575 -163.15616
13007400000 -2.7361617 -164.74365
13257350000 -2.7059958 -166.46162
13507300000 -2.6521127 -168.09477
13757250000 -2.6070089 -169.79419
14007200000 -2.5770922 -171.61748
14257150000 -2.535145 -173.07648
14507100000 -2.5200584 -174.68787
14757050000 -2.4899292 -176.38109
15007000000 -2.4280722 -177.73396
15256950000 -2.4174564 -179.28894
15506900000 -2.3821297 178.97844
15756850000 -2.3385334 177.56743
16006800000 -2.3384256 175.89072
16256750000 -2.2768278 174.58054
16506700000 -2.2814903 173.09052
16756650000 -2.2881227 171.49773
17006600000 -2.2297466 170.19913
17256550000 -2.2507303 168.85828
17506500000 -2.237617 167.23149
17756450000 -2.1872551 166.0322
18006400000 -2.2059531 164.65102
18256350000 -2.1892743 163.14381
18506300000 -2.1701369 161.96869
18756250000 -2.1987433 160.54033
19006200000 -2.1548829 159.29315
19256150000 -2.1620791 158.08865
19506100000 -2.1686218 156.73509
19756050000 -2.1240304 155.67111
20006000000 -2.1739931 154.47818
20255950000 -2.1500516 153.00191
20505900000 -2.0943575 152.1683
20755850000 -2.1489909 150.79305
21005800000 -2.1435161 149.22644
21255750000 -2.119905 148.23814
21505700000 -2.175746 147.0157
21755650000 -2.1272357 145.84668
22005600000 -2.141537 144.86374
22255550000 -2.1173606 143.71176
22505500000 -2.0594921 142.54016
22755450000 -2.0988879 141.47589
23005400000 -2.0608506 139.97516
23255350000 -2.0594497 139.01308
23505300000 -2.1596892 137.75961
23755250000 -2.0952418 136.60051
24005200000 -2.0997036 135.8933
24255150000 -2.1721771 134.60391
24505100000 -2.0932894 133.18047
24755050000 -2.1406972 132.20433
25005000000 -2.1661208 131.10555
25254950000 -2.165812 129.87485
25504900000 -2.2176847 128.87459
25754850000 -2.1694353 127.89519
26004800000 -2.2183886 127.17645
26254750000 -2.2436817 126.34122
26504700000 -2.1304994 124.84415
26754650000 -2.1212654 124.86414
27004600000 -2.1568882 123.51638
27254550000 -2.124162 121.83933
27504500000 -2.0703349 121.50341
27754450000 -2.2241654 119.88565
28004400000 -2.1499596 119.14957
28254350000 -2.1543148 118.16853
28504300000 -2.2067521 117.25509
28754250000 -2.133266 116.061
29004200000 -2.1829557 115.02963
29254150000 -2.1603422 113.58923
29504100000 -2.1761937 112.66611
29754050000 -2.2645104 111.37203
30004000000 -2.1799676 110.3495
30253950000 -2.2072527 110.31885
30503900000 -2.3144381 109.17186
30753850000 -2.1897352 107.81144
31003800000 -2.2234409 107.40238
31253750000 -2.3983414 106.31101
31503700000 -2.3729253 105.08892
31753650000 -2.381036 104.75746
32003600000 -2.4032295 104.10083
32253550000 -2.4071901 103.03931
32503500000 -2.4265685 101.89053
32753450000 -2.4098351 101.03414
33003400000 -2.4786372 100.27869
33253350000 -2.46068 99.573174
33503300000 -2.3934641 98.675415
33753250000 -2.4996932 98.397957
34003200000 -2.4564424 97.528404
34253150000 -2.2879791 96.697609
34503100000 -2.2556596 96.996376
34753050000 -2.3239329 95.229309
35003000000 -2.1866896 94.192741
35252950000 -2.1565833 93.066864
35502900000 -2.2396753 91.874161
35752850000 -2.3719087 90.617195
36002800000 -2.3117218 89.71846
36252750000 -2.2385216 88.630264
36502700000 -2.3835094 87.398117
36752650000 -2.4219015 85.991875
37002600000 -2.4161673 85.46978
37252550000 -2.467232 85.284836
37502500000 -2.4107587 84.145096
37752450000 -2.3691218 83.474609
38002400000 -2.3372209 82.233826
38252350000 -2.4462352 80.244034
38502300000 -2.5781713 80.304466
38752250000 -2.5622766 81.131882
39002200000 -2.5029039 79.993629
39252150000 -2.4285474 78.991295
39502100000 -2.3708427 77.511826
39752050000 -2.4489079 76.039871
40002000000 -2.5609312 75.422577
40251950000 -2.5776703 74.573799
40501900000 -2.5171888 74.793434
40751850000 -2.4609659 73.271317
41001800000 -2.476598 72.139343
41251750000 -2.4361529 70.925102
41501700000 -2.5749362 70.210281
41751650000 -2.5552759 69.749336
42001600000 -2.4890146 69.642479
42251550000 -2.3287125 68.529716
42501500000 -2.4336476 66.202286
42751450000 -2.555541 65.592094
43001400000 -2.726397 65.120232
43251350000 -2.7025096 65.137154
43501300000 -2.6044276 64.375916
43751250000 -2.5040774 63.179543
44001200000 -2.5740085 61.401299
44251150000 -2.7935283 60.288223
44501100000 -2.8271832 60.321522
44751050000 -2.8624747 61.031284
45001000000 -2.570883 61.069698
45250950000 -2.5044651 58.790321
45500900000 -2.5615797 57.681072
45750850000 -2.7407308 54.821201
46000800000 -3.0182734 57.863396
46250750000 -2.8709352 58.450157
46500700000 -2.4804273 57.82217
46750650000 -2.0500939 54.680084
47000600000 -2.5468142 51.885643
47250550000 -2.8289094 50.781708
47500500000 -3.0495999 52.576149
47750450000 -2.6856244 53.018459
48000400000 -2.3742325 51.545521
48250350000 -2.1979444 48.701759
48500300000 -2.5338104 45.122036
48750250000 -2.9292159 44.40728
49000200000 -3.3480983 47.73016
49250150000 -2.3469262 50.923634
49500100000 -1.7956991 46.487255
49750050000 -1.8521764 41.270302
50000000000 -2.525352 29.175512
