!Agilent Technologies,N5227A,US51270434,A.10.00.00
!Agilent N5227A: A.10.00.00
!Date: Thursday, February 26, 2026 12:46:48
!Correction: S11(Full 1 Port(1)) 
!S1P File: Measurement: S11:
# Hz S  dB   R 50
10000000 -9.3058319 0.099458583
259950000 -9.2380533 -4.6635714
509900000 -9.2285929 -9.3528824
759850000 -9.1743326 -13.966849
1009800000 -9.0972528 -18.330839
1259750000 -9.0465736 -22.788864
1509700000 -8.9194803 -27.36245
1759650000 -8.8185377 -31.610161
2009600000 -8.7294731 -36.019276
2259550000 -8.5845728 -40.157394
2509500000 -8.4690533 -44.077515
2759450000 -8.3068399 -48.108269
3009400000 -8.1374502 -51.930534
3259350000 -7.9920325 -55.703312
3509300000 -7.810317 -59.556129
3759250000 -7.6487207 -63.140911
4009200000 -7.5028253 -66.810341
4259150000 -7.3158703 -70.239845
4509100000 -7.1674457 -73.553833
4759050000 -6.9817014 -76.854202
5009000000 -6.8157058 -79.917084
5258950000 -6.6710491 -83.140015
5508900000 -6.4791589 -86.190407
5758850000 -6.3284545 -89.032181
6008800000 -6.1972151 -92.087608
6258750000 -6.0155931 -94.92804
6508700000 -5.8958268 -97.631233
6758650000 -5.73701 -100.37707
7008600000 -5.5829139 -102.94405
7258550000 -5.4616814 -105.53473
7508500000 -5.3091135 -108.15183
7758450000 -5.1852489 -110.64472
8008400000 -5.0579443 -113.06553
8258350000 -4.9087377 -115.34272
8508300000 -4.79427 -117.68841
8758250000 -4.6699328 -120.12833
9008200000 -4.5304484 -122.26785
9258150000 -4.4615088 -124.66179
9508100000 -4.3420305 -126.87403
9758050000 -4.2452092 -128.99648
10008000000 -4.1616096 -131.10439
10257950000 -4.0498509 -133.18002
10507900000 -3.9591439 -135.28137
10757850000 -3.8624811 -137.31807
11007800000 -3.7748833 -139.33232
11257750000 -3.7246768 -141.41071
11507700000 -3.6288257 -143.2551
11757650000 -3.5433905 -145.05609
12007600000 -3.4922678 -147.06665
12257550000 -3.3931463 -148.93098
12507500000 -3.3472736 -150.81934
12757450000 -3.3071694 -152.71849
13007400000 -3.2312906 -154.32707
13257350000 -3.1816511 -156.16396
13507300000 -3.122365 -157.82671
13757250000 -3.0590839 -159.65329
14007200000 -3.0217938 -161.50624
14257150000 -2.962148 -162.99831
14507100000 -2.9283364 -164.6763
14757050000 -2.8923342 -166.46539
15007000000 -2.8175237 -167.9445
15256950000 -2.7853022 -169.56244
15506900000 -2.7438955 -171.36771
15756850000 -2.6877193 -172.83858
16006800000 -2.6772022 -174.58521
16256750000 -2.5982614 -176.02579
16506700000 -2.5952725 -177.54524
16756650000 -2.5969892 -179.23087
17006600000 -2.519006 179.35007
17256550000 -2.5256867 177.98726
17506500000 -2.5133131 176.27937
17756450000 -2.4495845 174.95802
18006400000 -2.4593313 173.52109
18256350000 -2.4347663 171.88275
18506300000 -2.4033856 170.65034
18756250000 -2.4188066 169.18076
19006200000 -2.3732889 167.83482
19256150000 -2.3682704 166.56404
19506100000 -2.3645871 165.14742
19756050000 -2.3118365 163.97298
20006000000 -2.3501303 162.74677
20255950000 -2.3273861 161.17757
20505900000 -2.2628303 160.24391
20755850000 -2.3006852 158.85863
21005800000 -2.2985091 157.19476
21255750000 -2.2631793 156.08267
21505700000 -2.3129926 154.82108
21755650000 -2.2638659 153.60184
22005600000 -2.2530057 152.54672
22255550000 -2.229121 151.32005
22505500000 -2.1669486 149.97121
22755450000 -2.2004492 148.88408
23005400000 -2.1703942 147.30655
23255350000 -2.1536858 146.27403
23505300000 -2.242959 145.02423
23755250000 -2.1767743 143.73587
24005200000 -2.1665812 142.965
24255150000 -2.2381546 141.66669
24505100000 -2.162956 140.10783
24755050000 -2.1895702 139.10065
25005000000 -2.222388 137.92989
25254950000 -2.2172499 136.64249
25504900000 -2.2619386 135.56418
25754850000 -2.2249525 134.48587
26004800000 -2.2475722 133.7928
26254750000 -2.2759922 132.80501
26504700000 -2.1841803 131.27989
26754650000 -2.1456232 131.13747
27004600000 -2.1971335 129.79555
27254550000 -2.1426604 128.11934
27504500000 -2.0960689 127.52294
27754450000 -2.2524126 126.10298
28004400000 -2.1629269 125.22038
28254350000 -2.1702075 124.23331
28504300000 -2.2056489 123.26723
28754250000 -2.1283972 121.92893
29004200000 -2.182626 120.85814
29254150000 -2.1691718 119.41276
29504100000 -2.1789207 118.41164
29754050000 -2.2679889 117.11983
30004000000 -2.1887178 116.0295
30253950000 -2.2039845 115.91734
30503900000 -2.3048358 114.72162
30753850000 -2.1739628 113.41
31003800000 -2.2091582 112.67423
31253750000 -2.4003451 111.91994
31503700000 -2.3530419 110.4787
31753650000 -2.3565915 110.13605
32003600000 -2.376641 109.50042
32253550000 -2.3670478 108.25845
32503500000 -2.3849308 107.09618
32753450000 -2.3758409 106.17772
33003400000 -2.4368513 105.41899
33253350000 -2.4285426 104.76353
33503300000 -2.3374267 103.75715
33753250000 -2.4208658 103.4937
34003200000 -2.3932183 102.45033
34253150000 -2.2445035 101.55904
34503100000 -2.2078283 101.8029
34753050000 -2.2730937 99.978493
35003000000 -2.1377478 98.79113
35252950000 -2.0896442 97.709473
35502900000 -2.1770291 96.438492
35752850000 -2.3224354 95.225609
36002800000 -2.2587075 94.34021
36252750000 -2.1860209 93.09594
36502700000 -2.3178921 91.987526
36752650000 -2.35922 90.578255
37002600000 -2.355973 89.857903
37252550000 -2.3940351 89.652008
37502500000 -2.3272152 88.504349
37752450000 -2.3008964 87.655571
38002400000 -2.268878 86.430656
38252350000 -2.3674068 84.422585
38502300000 -2.5389752 84.740562
38752250000 -2.4815669 85.553078
39002200000 -2.4181633 84.334816
39252150000 -2.3636222 83.224731
39502100000 -2.2726548 81.532524
39752050000 -2.3638964 80.234818
40002000000 -2.4746444 79.550056
40251950000 -2.4860463 78.57579
40501900000 -2.4167707 78.728638
40751850000 -2.3581722 77.229759
41001800000 -2.3798645 75.839638
41251750000 -2.3318403 74.840584
41501700000 -2.4864361 74.124016
41751650000 -2.454087 73.338036
42001600000 -2.3995504 73.321831
42251550000 -2.2140124 72.169327
42501500000 -2.34448 69.899826
42751450000 -2.447758 69.238174
43001400000 -2.600539 68.843124
43251350000 -2.5998037 68.877373
43501300000 -2.4886775 67.817146
43751250000 -2.4119313 66.510719
44001200000 -2.4907441 64.931335
44251150000 -2.6886475 63.732994
44501100000 -2.6990619 63.79937
44751050000 -2.7326357 64.485291
45001000000 -2.4529316 64.317902
45250950000 -2.4066734 62.133945
45500900000 -2.4830651 60.807018
45750850000 -2.6080525 58.37043
46000800000 -2.8959961 60.669388
46250750000 -2.7976892 61.704067
46500700000 -2.3579555 60.878475
46750650000 -1.898433 57.782703
47000600000 -2.4378433 54.81612
47250550000 -2.730979 53.9095
47500500000 -2.9396958 55.770821
47750450000 -2.5366242 56.009384
48000400000 -2.2766023 54.341618
48250350000 -2.0920627 51.610653
48500300000 -2.4465258 48.132011
48750250000 -2.8115869 47.375416
49000200000 -3.1851325 50.7938
49250150000 -2.189045 53.748226
49500100000 -1.6884037 48.961285
49750050000 -1.7300467 44.074043
50000000000 -2.4347572 32.33984
