!Agilent Technologies,N5227A,US51270434,A.10.00.00
!Agilent N5227A: A.10.00.00
!Date: Thursday, February 26, 2026 12:47:15
!Correction: S11(Full 1 Port(1)) 
!S1P File: Measurement: S11:
# Hz S  dB   R 50
10000000 -8.9349518 -0.075122662
259950000 -8.8924913 -3.7721679
509900000 -8.8909569 -7.5637074
759850000 -8.8622189 -11.300682
1009800000 -8.8048658 -14.873316
1259750000 -8.7866001 -18.51333
1509700000 -8.7019453 -22.340706
1759650000 -8.6392164 -25.878925
2009600000 -8.5948296 -29.540834
2259550000 -8.4961796 -33.069111
2509500000 -8.42908 -36.37392
2759450000 -8.3210011 -39.8452
3009400000 -8.2023668 -43.168663
3259350000 -8.1042614 -46.454609
3509300000 -7.9771404 -49.872864
3759250000 -7.866014 -53.100319
4009200000 -7.7653494 -56.403267
4259150000 -7.6287947 -59.509644
4509100000 -7.5231061 -62.481888
4759050000 -7.3882875 -65.511765
5009000000 -7.2493038 -68.32383
5258950000 -7.143806 -71.312622
5508900000 -6.9875584 -74.196594
5758850000 -6.8602014 -76.897224
6008800000 -6.76404 -79.735062
6258750000 -6.6056042 -82.497597
6508700000 -6.5045748 -84.991478
6758650000 -6.3649774 -87.678452
7008600000 -6.2328672 -90.196785
7258550000 -6.1267624 -92.64798
7508500000 -5.9863148 -95.242455
7758450000 -5.8808279 -97.643639
8008400000 -5.7565455 -100.05097
8258350000 -5.6205955 -102.29874
8508300000 -5.5102959 -104.58009
8758250000 -5.392982 -106.99467
9008200000 -5.2490187 -109.1516
9258150000 -5.1875758 -111.49895
9508100000 -5.0742798 -113.72835
9758050000 -4.975224 -115.80411
10008000000 -4.8869896 -117.8588
10257950000 -4.7709994 -119.99133
10507900000 -4.6810803 -122.10983
10757850000 -4.581995 -124.21976
11007800000 -4.4856825 -126.2354
11257750000 -4.4384012 -128.30396
11507700000 -4.3313093 -130.21669
11757650000 -4.2319131 -132.04405
12007600000 -4.1783047 -134.09219
12257550000 -4.0727015 -136.01346
12507500000 -4.0118175 -137.90216
12757450000 -3.9647768 -139.78954
13007400000 -3.8771443 -141.4847
13257350000 -3.8204565 -143.33603
13507300000 -3.7421548 -145.08952
13757250000 -3.6683581 -146.93939
14007200000 -3.6282144 -148.86778
14257150000 -3.5488832 -150.43745
14507100000 -3.5054128 -152.10127
14757050000 -3.463177 -153.99414
15007000000 -3.3676789 -155.53947
15256950000 -3.3239336 -157.22964
15506900000 -3.2793303 -159.12306
15756850000 -3.2097528 -160.70757
16006800000 -3.1908224 -162.45326
16256750000 -3.0962217 -164.03084
16506700000 -3.0775139 -165.58427
16756650000 -3.0718212 -167.30243
17006600000 -2.9812055 -168.83751
17256550000 -2.9739749 -170.22093
17506500000 -2.9547822 -172.00963
17756450000 -2.878978 -173.47226
18006400000 -2.8791773 -174.93776
18256350000 -2.8492529 -176.65492
18506300000 -2.7984846 -177.99164
18756250000 -2.8091407 -179.51117
19006200000 -2.752424 179.04138
19256150000 -2.7294414 177.72978
19506100000 -2.7224274 176.22765
19756050000 -2.6503491 174.97829
20006000000 -2.6765704 173.6982
20255950000 -2.6524482 172.02908
20505900000 -2.5671148 170.99272
20755850000 -2.5988543 169.60904
21005800000 -2.5930338 167.78136
21255750000 -2.5455132 166.60622
21505700000 -2.577153 165.35651
21755650000 -2.518887 164.00139
22005600000 -2.5041008 162.80368
22255550000 -2.4726703 161.43224
22505500000 -2.4045134 159.95207
22755450000 -2.429944 158.84598
23005400000 -2.4019558 157.13008
23255350000 -2.3778236 156.10092
23505300000 -2.4478705 154.81566
23755250000 -2.3900266 153.42929
24005200000 -2.3529019 152.57204
24255150000 -2.4232922 151.21631
24505100000 -2.3490868 149.55841
24755050000 -2.363863 148.46451
25005000000 -2.3928652 147.22374
25254950000 -2.3853228 145.9097
25504900000 -2.4155397 144.75208
25754850000 -2.3779685 143.56633
26004800000 -2.3835683 142.81081
26254750000 -2.4065444 141.75429
26504700000 -2.3192077 140.06766
26754650000 -2.2665133 139.86539
27004600000 -2.3189204 138.51973
27254550000 -2.277657 136.7243
27504500000 -2.211714 136.07707
27754450000 -2.3667731 134.70087
28004400000 -2.253022 133.67621
28254350000 -2.25635 132.60777
28504300000 -2.2941635 131.65457
28754250000 -2.2023416 130.04074
29004200000 -2.2659774 129.07652
29254150000 -2.24807 127.4885
29504100000 -2.2570102 126.36324
29754050000 -2.3511493 125.1302
30004000000 -2.2680337 123.83717
30253950000 -2.2507493 123.73219
30503900000 -2.3564732 122.5997
30753850000 -2.223835 120.90214
31003800000 -2.2675097 120.47603
31253750000 -2.4367814 119.57533
31503700000 -2.3991125 118.07365
31753650000 -2.3980353 117.6924
32003600000 -2.3981688 116.96426
32253550000 -2.392807 115.67277
32503500000 -2.4070845 114.47693
32753450000 -2.3936391 113.46696
33003400000 -2.4490497 112.65205
33253350000 -2.4229393 111.86752
33503300000 -2.3396137 110.74488
33753250000 -2.4272003 110.56503
34003200000 -2.390172 109.40248
34253150000 -2.2398851 108.34571
34503100000 -2.1765449 108.56759
34753050000 -2.243814 106.73612
35003000000 -2.1202114 105.28442
35252950000 -2.0783634 104.32894
35502900000 -2.1576288 103.11842
35752850000 -2.2957654 101.78909
36002800000 -2.2283385 100.79208
36252750000 -2.1716783 99.416061
36502700000 -2.3138628 98.383621
36752650000 -2.3566377 96.882126
37002600000 -2.3427024 96.225998
37252550000 -2.3590024 95.896317
37502500000 -2.3033576 94.730316
37752450000 -2.2627907 93.765434
38002400000 -2.2407193 92.510757
38252350000 -2.3472857 90.66259
38502300000 -2.4941177 90.683708
38752250000 -2.3996587 91.68203
39002200000 -2.3305459 90.183594
39252150000 -2.2741764 88.972282
39502100000 -2.2204857 87.282463
39752050000 -2.3003008 85.783455
40002000000 -2.4129627 85.406738
40251950000 -2.4144759 84.294518
40501900000 -2.3327312 84.341057
40751850000 -2.2760172 82.793694
41001800000 -2.308768 81.353065
41251750000 -2.2834871 80.264122
41501700000 -2.4004338 79.588295
41751650000 -2.3796117 78.893921
42001600000 -2.2957647 78.688965
42251550000 -2.1448555 77.314865
42501500000 -2.2816846 75.037682
42751450000 -2.3638568 74.468803
43001400000 -2.5383272 74.024925
43251350000 -2.497828 73.952934
43501300000 -2.3745191 72.918854
43751250000 -2.303483 71.371529
44001200000 -2.3963566 69.785034
44251150000 -2.616987 68.828888
44501100000 -2.6121836 68.868172
44751050000 -2.6101348 69.344246
45001000000 -2.3111861 69.190674
45250950000 -2.2992761 66.596672
45500900000 -2.3392601 65.468971
45750850000 -2.5386622 63.048
46000800000 -2.7764995 65.534798
46250750000 -2.6044436 66.389091
46500700000 -2.2130301 65.390938
46750650000 -1.8028632 61.941177
47000600000 -2.3386652 59.355835
47250550000 -2.6442137 58.477036
47500500000 -2.7721694 60.332626
47750450000 -2.3808548 60.339252
48000400000 -2.1253424 58.418888
48250350000 -1.9895506 55.682755
48500300000 -2.3817487 52.314896
48750250000 -2.7304516 51.816624
49000200000 -3.0462039 55.328415
49250150000 -2.0027106 57.594738
49500100000 -1.5255202 52.757168
49750050000 -1.6470791 47.561043
50000000000 -2.4245057 36.032772
