!Agilent Technologies,N5227A,US51270434,A.10.00.00
!Agilent N5227A: A.10.00.00
!Date: Thursday, February 26, 2026 12:47:29
!Correction: S11(Full 1 Port(1)) 
!S1P File: Measurement: S11:
# Hz S  dB   R 50
10000000 -8.7481403 -0.16165809
259950000 -8.6542778 -3.4865663
509900000 -8.6484022 -7.0069494
759850000 -8.6304483 -10.539895
1009800000 -8.5715284 -13.820325
1259750000 -8.5662575 -17.19381
1509700000 -8.4975309 -20.791285
1759650000 -8.4426041 -24.118225
2009600000 -8.4127588 -27.561901
2259550000 -8.3257704 -30.898865
2509500000 -8.2748861 -33.974384
2759450000 -8.1815777 -37.275597
3009400000 -8.0756502 -40.425724
3259350000 -8.0028429 -43.54427
3509300000 -7.8884311 -46.833561
3759250000 -7.790576 -49.884518
4009200000 -7.7102761 -53.07597
4259150000 -7.5923915 -56.044621
4509100000 -7.4990106 -58.901802
4759050000 -7.3764243 -61.842651
5009000000 -7.2583346 -64.583534
5258950000 -7.167263 -67.456703
5508900000 -7.0239258 -70.280312
5758850000 -6.9152942 -72.868996
6008800000 -6.8232088 -75.645683
6258750000 -6.6791306 -78.353363
6508700000 -6.5893068 -80.808418
6758650000 -6.4651723 -83.450806
7008600000 -6.334672 -85.903969
7258550000 -6.2392755 -88.330467
7508500000 -6.1124434 -90.886406
7758450000 -6.011806 -93.269203
8008400000 -5.8992214 -95.598228
8258350000 -5.7723441 -97.844444
8508300000 -5.6609774 -100.13442
8758250000 -5.552681 -102.52979
9008200000 -5.4181461 -104.67912
9258150000 -5.3580041 -106.99683
9508100000 -5.2431908 -109.19372
9758050000 -5.1551886 -111.26471
10008000000 -5.0642567 -113.32434
10257950000 -4.9600816 -115.45509
10507900000 -4.86586 -117.58421
10757850000 -4.7739739 -119.69193
11007800000 -4.6805167 -121.70834
11257750000 -4.63591 -123.76241
11507700000 -4.5266471 -125.68119
11757650000 -4.4220471 -127.54798
12007600000 -4.3743525 -129.55847
12257550000 -4.2683864 -131.50237
12507500000 -4.2128816 -133.36731
12757450000 -4.1657047 -135.27153
13007400000 -4.0787692 -136.99879
13257350000 -4.0142703 -138.82822
13507300000 -3.9343045 -140.59584
13757250000 -3.8629165 -142.47795
14007200000 -3.824363 -144.40785
14257150000 -3.744607 -146.01796
14507100000 -3.6952419 -147.66653
14757050000 -3.6454589 -149.55791
15007000000 -3.5482407 -151.17093
15256950000 -3.5040851 -152.8436
15506900000 -3.4523697 -154.75037
15756850000 -3.3854172 -156.38229
16006800000 -3.3671489 -158.12207
16256750000 -3.2655146 -159.75714
16506700000 -3.2479055 -161.28218
16756650000 -3.2416186 -163.02267
17006600000 -3.1434803 -164.65993
17256550000 -3.1346555 -166.0116
17506500000 -3.1200407 -167.81366
17756450000 -3.0360541 -169.31317
18006400000 -3.0307837 -170.77089
18256350000 -3.0017951 -172.52049
18506300000 -2.9541676 -173.87846
18756250000 -2.9553144 -175.39603
19006200000 -2.9001791 -176.87772
19256150000 -2.8735766 -178.21245
19506100000 -2.860852 -179.72804
19756050000 -2.7858269 178.96558
20006000000 -2.8140993 177.68051
20255950000 -2.7858248 175.9895
20505900000 -2.6916299 174.87076
20755850000 -2.7195098 173.47456
21005800000 -2.7161498 171.68404
21255750000 -2.6619515 170.44542
21505700000 -2.6921282 169.24524
21755650000 -2.6334414 167.81821
22005600000 -2.6132038 166.55844
22255550000 -2.5774136 165.17365
22505500000 -2.5173421 163.6819
22755450000 -2.5296235 162.51007
23005400000 -2.5053978 160.79131
23255350000 -2.4747999 159.69371
23505300000 -2.5493367 158.49245
23755250000 -2.4870126 157.0517
24005200000 -2.4472785 156.15335
24255150000 -2.5087364 154.78694
24505100000 -2.4408479 153.05075
24755050000 -2.4508152 151.93137
25005000000 -2.4790812 150.68816
25254950000 -2.4710317 149.40045
25504900000 -2.5008271 148.22903
25754850000 -2.4581687 146.9929
26004800000 -2.4531248 146.17143
26254750000 -2.4822338 145.11768
26504700000 -2.3900688 143.40555
26754650000 -2.3409803 143.14671
27004600000 -2.380173 141.79367
27254550000 -2.3430636 140.03145
27504500000 -2.2734277 139.25368
27754450000 -2.4239602 137.90376
28004400000 -2.3133521 136.84662
28254350000 -2.3115523 135.87442
28504300000 -2.3384457 134.75853
28754250000 -2.2622454 133.19946
29004200000 -2.3190076 132.11722
29254150000 -2.3108854 130.52827
29504100000 -2.3119144 129.42628
29754050000 -2.4045153 128.17751
30004000000 -2.3149214 126.91039
30253950000 -2.310704 126.6603
30503900000 -2.4079504 125.51687
30753850000 -2.2847645 123.83921
31003800000 -2.3126521 123.27514
31253750000 -2.4756892 122.46339
31503700000 -2.4533031 120.92271
31753650000 -2.4143822 120.56407
32003600000 -2.4335067 119.85532
32253550000 -2.4282408 118.54669
32503500000 -2.4503758 117.32682
32753450000 -2.4276989 116.31451
33003400000 -2.4826548 115.50556
33253350000 -2.4482262 114.6784
33503300000 -2.3651841 113.43055
33753250000 -2.4512756 113.17246
34003200000 -2.4199398 112.01974
34253150000 -2.2669857 110.93867
34503100000 -2.1822722 111.26671
34753050000 -2.2688839 109.33064
35003000000 -2.1646111 107.92155
35252950000 -2.1043353 106.72354
35502900000 -2.1785831 105.62251
35752850000 -2.3147483 104.3998
36002800000 -2.2451146 103.21536
36252750000 -2.1650891 101.91574
36502700000 -2.3359096 100.80924
36752650000 -2.3826213 99.365227
37002600000 -2.3627698 98.597557
37252550000 -2.3747952 98.344521
37502500000 -2.3065774 97.110939
37752450000 -2.2582381 96.213539
38002400000 -2.2604065 94.917061
38252350000 -2.3479133 93.070122
38502300000 -2.5180902 93.173172
38752250000 -2.4178596 94.182053
39002200000 -2.3204141 92.50856
39252150000 -2.2542169 91.207321
39502100000 -2.2103045 89.609894
39752050000 -2.3377399 88.27887
40002000000 -2.403456 87.659599
40251950000 -2.4026544 86.613731
40501900000 -2.2926037 86.544312
40751850000 -2.2577791 84.907623
41001800000 -2.3226399 83.453911
41251750000 -2.2886686 82.322212
41501700000 -2.4105093 81.806389
41751650000 -2.3820977 80.94017
42001600000 -2.2799191 80.877357
42251550000 -2.1390152 79.288811
42501500000 -2.266557 77.122627
42751450000 -2.3881121 76.497566
43001400000 -2.5075345 76.138245
43251350000 -2.471467 76.118103
43501300000 -2.3483067 74.88829
43751250000 -2.2803385 73.467613
44001200000 -2.3849247 71.662041
44251150000 -2.6056154 70.889236
44501100000 -2.6107819 70.743996
44751050000 -2.5900872 71.503288
45001000000 -2.262351 71.08445
45250950000 -2.2639046 68.389114
45500900000 -2.3093507 67.225845
45750850000 -2.5434182 64.599045
46000800000 -2.7424629 67.770432
46250750000 -2.5495627 68.521233
46500700000 -2.1094551 67.101212
46750650000 -1.7310079 63.52108
47000600000 -2.3133318 60.668404
47250550000 -2.6429825 60.186138
47500500000 -2.7648013 62.477539
47750450000 -2.3183658 62.197731
48000400000 -2.0499191 60.178421
48250350000 -1.9309666 57.03508
48500300000 -2.388026 53.760483
48750250000 -2.7251649 53.443974
49000200000 -3.0650654 57.375679
49250150000 -1.9099964 59.536552
49500100000 -1.4280926 54.213379
49750050000 -1.5943975 48.851219
50000000000 -2.4111471 37.21928
