!Agilent Technologies,N5227A,US51270434,A.10.00.00
!Agilent N5227A: A.10.00.00
!Date: Monday, March 30, 2026 11:21:45
!Correction: S11(Full 1 Port(1)) 
!S1P File: Measurement: S11:
# Hz S  dB   R 50
10000000 -0.018746477 0.066631071
209950000 0.0060701487 -1.8119715
409900000 0.0031450167 -3.5304911
609850000 0.0018173655 -5.2745829
809800000 -0.004213369 -7.0405765
1009750000 -0.010367847 -8.7228842
1209700000 -0.014730223 -10.463652
1409650000 -0.01226549 -12.150487
1609600000 -0.020578694 -13.9056
1809550000 -0.028325438 -15.627417
2009500000 -0.036841918 -17.340969
2209450000 -0.046731919 -19.054747
2409400000 -0.063359857 -20.731831
2609350000 -0.064437509 -22.387768
2809300000 -0.077468328 -24.105465
3009250000 -0.083420701 -25.784267
3209200000 -0.087505646 -27.479599
3409150000 -0.09102767 -29.163683
3609100000 -0.10319045 -30.899393
3809050000 -0.12147807 -32.58215
4009000000 -0.12750052 -34.267914
4208950000 -0.13853405 -35.92802
4408900000 -0.1536409 -37.625374
4608850000 -0.16934478 -39.334206
4808800000 -0.177856 -40.9347
5008750000 -0.18759002 -42.624481
5208700000 -0.19753246 -44.294804
5408650000 -0.21826501 -45.994404
5608600000 -0.22819184 -47.631012
5808550000 -0.24457031 -49.264
6008500000 -0.25851068 -50.947449
6208450000 -0.27487656 -52.546284
6408400000 -0.29995227 -54.25293
6608350000 -0.30397424 -55.799877
6808300000 -0.33092996 -57.511436
7008250000 -0.3424533 -59.100685
7208200000 -0.35294574 -60.732841
7408150000 -0.37392521 -62.380051
7608100000 -0.39824486 -63.98423
7808050000 -0.42059195 -65.606552
8008000000 -0.42979869 -67.184258
8207950000 -0.44961056 -68.812195
8407900000 -0.46848372 -70.400558
8607850000 -0.48179182 -72.02948
8807800000 -0.49800256 -73.615974
9007750000 -0.51971167 -75.208076
9207700000 -0.54502583 -76.771263
9407650000 -0.55515909 -78.375122
9607600000 -0.57874399 -79.929398
9807550000 -0.61215222 -81.535988
10007500000 -0.61952245 -83.061729
10207450000 -0.66122794 -84.575348
10407400000 -0.67051768 -86.210953
10607350000 -0.70510036 -87.718254
10807300000 -0.71105158 -89.248459
11007250000 -0.73049593 -90.767242
11207200000 -0.75721484 -92.284294
11407150000 -0.7813729 -93.822289
11607100000 -0.80380934 -95.44828
11807050000 -0.81487381 -96.820404
12007000000 -0.84313464 -98.473373
12206950000 -0.859285 -99.863464
12406900000 -0.87589633 -101.49168
12606850000 -0.89995962 -102.81086
12806800000 -0.92269307 -104.50423
13006750000 -0.93713337 -105.90723
13206700000 -0.96803951 -107.47189
13406650000 -0.98226231 -108.96404
13606600000 -0.88392293 -104.05593
13806550000 -0.91300446 -106.31046
14006500000 -0.95610994 -108.39573
14206450000 -0.98432112 -110.7178
14406400000 -1.027823 -112.81972
14606350000 -1.0639304 -115.1694
14806300000 -1.1133528 -117.46076
15006250000 -1.150458 -119.88251
15206200000 -1.1998572 -122.23091
15406150000 -1.2180239 -124.11996
15606100000 -1.2546983 -125.54628
15806050000 -1.2721432 -126.8365
16006000000 -1.280453 -127.92178
16205950000 -1.3223401 -129.64221
16405900000 -1.3273871 -130.89891
16605850000 -1.358905 -132.00406
16805800000 -1.3772187 -133.41766
17005750000 -1.4035068 -134.92432
17205700000 -1.4211932 -136.26013
17405650000 -1.4432608 -137.64381
17605600000 -1.4809164 -138.97964
17805550000 -1.4964684 -140.42776
18005500000 -1.5299767 -141.74701
18205450000 -1.5426878 -143.10167
18405400000 -1.5803409 -144.43854
18605350000 -1.5905968 -145.77898
18805300000 -1.6119306 -147.15952
19005250000 -1.643297 -148.43681
19205200000 -1.658478 -149.81081
19405150000 -1.6873255 -151.12886
19605100000 -1.7018723 -152.38029
19805050000 -1.7235725 -153.80661
20005000000 -1.7447785 -155.00159
20204950000 -1.7723994 -156.37935
20404900000 -1.7844015 -157.65921
20604850000 -1.8087389 -158.9623
20804800000 -1.8260506 -160.24059
21004750000 -1.8655407 -161.51099
21204700000 -1.8755656 -162.91313
21404650000 -1.900148 -164.13968
21604600000 -1.9023725 -165.38968
21804550000 -1.9603851 -166.65198
22004500000 -1.9574648 -167.97144
22204450000 -2.0019767 -169.23021
22404400000 -1.9925064 -170.427
22604350000 -2.0389791 -171.71216
22804300000 -2.0462966 -172.84663
23004250000 -2.062 -174.15944
23204200000 -2.093359 -175.37312
23404150000 -2.104104 -176.50743
23604100000 -2.1356647 -177.7847
23804050000 -2.1467268 -178.90053
24004000000 -2.165503 179.82262
24203950000 -2.1810575 178.65681
24403900000 -2.2001321 177.45253
24603850000 -2.2216132 176.27806
24803800000 -2.2181063 175.1205
25003750000 -2.2522461 173.94466
25203700000 -2.2724988 172.75615
25403650000 -2.2883523 171.47986
25603600000 -2.3017812 170.44128
25803550000 -2.3039947 169.07045
26003500000 -2.3300636 168.17393
26203450000 -2.3404 166.83562
26403400000 -2.3667862 165.70294
26603350000 -2.3596978 164.57431
26803300000 -2.3849125 163.44904
27003250000 -2.39148 162.45683
27203200000 -2.4331899 161.08807
27403150000 -2.4276721 160.11049
27603100000 -2.4438477 159.02579
27803050000 -2.4928372 157.94041
28003000000 -2.4906445 156.92952
28202950000 -2.5003843 155.71791
28402900000 -2.5049734 154.72137
28602850000 -2.5038028 153.40614
28802800000 -2.5459456 152.35454
29002750000 -2.5259228 151.21123
29202700000 -2.6059079 150.1606
29402650000 -2.5598085 149.21474
29602600000 -2.6366765 147.94727
29802550000 -2.6124537 147.05579
30002500000 -2.6301613 145.89568
30202450000 -2.6248741 145.10764
30402400000 -2.645021 144.18257
30602350000 -2.6761074 142.78033
30802300000 -2.6194797 142.17412
31002250000 -2.6455431 141.23558
31202200000 -2.6887293 140.58588
31402150000 -2.7242656 138.94788
31602100000 -2.7322907 138.30522
31802050000 -2.668046 136.91566
32002000000 -2.746896 136.63428
32201950000 -2.7202854 134.93556
32401900000 -2.727226 134.17058
32601850000 -2.7303309 133.23343
32801800000 -2.7263732 132.1924
33001750000 -2.7946427 131.34227
33201700000 -2.6866732 130.21152
33401650000 -2.7549191 129.30704
33601600000 -2.696357 128.52901
33801550000 -2.7757733 127.33286
34001500000 -2.6852922 126.71711
34201450000 -2.6964273 125.25902
34401400000 -2.6614244 125.11796
34601350000 -2.7118716 123.89703
34801300000 -2.7276618 122.99238
35001250000 -2.6745281 121.8258
35201200000 -2.6743572 120.79014
35401150000 -2.5761437 120.81893
35601100000 -2.7645543 119.06561
35801050000 -2.6501319 118.52791
36001000000 -2.6651051 116.62875
36200950000 -2.6365473 116.26314
36400900000 -2.6490774 114.92833
36600850000 -2.7066727 113.9398
36800800000 -2.6590691 112.92639
37000750000 -2.6827016 111.75618
37200700000 -2.6490636 111.38057
37400650000 -2.6628325 110.0609
37600600000 -2.7106121 109.38673
37800550000 -2.6007361 108.36552
38000500000 -2.657141 107.53436
38200450000 -2.6013482 106.88237
38400400000 -2.6166542 105.77635
38600350000 -2.6366382 105.22086
38800300000 -2.5959496 103.70589
39000250000 -2.6109765 103.74924
39200200000 -2.5933037 101.56531
39400150000 -2.6172872 101.24359
39600100000 -2.6427641 99.921089
39800050000 -2.628484 99.167633
40000000000 -2.6497045 98.405289
