!Agilent Technologies,N5227A,US51270434,A.10.00.00
!Agilent N5227A: A.10.00.00
!Date: Monday, March 30, 2026 11:21:59
!Correction: S11(Full 1 Port(1)) 
!S1P File: Measurement: S11:
# Hz S  dB   R 50
10000000 -0.010879453 0.068469435
209950000 0.0074865823 -1.6182396
409900000 0.005495911 -3.1719229
609850000 0.0014757855 -4.7079492
809800000 0.0040840711 -6.2682357
1009750000 -0.0054508471 -7.817873
1209700000 -0.014293064 -9.3517179
1409650000 -0.012525071 -10.869796
1609600000 -0.015284259 -12.426825
1809550000 -0.021057578 -13.978365
2009500000 -0.027811984 -15.50948
2209450000 -0.03764531 -17.042866
2409400000 -0.050666086 -18.550936
2609350000 -0.048162516 -20.040316
2809300000 -0.064858511 -21.548807
3009250000 -0.064231031 -23.065767
3209200000 -0.07084427 -24.58272
3409150000 -0.071575649 -26.10446
3609100000 -0.078684501 -27.658834
3809050000 -0.094442755 -29.174307
4009000000 -0.1010098 -30.684557
4208950000 -0.10367617 -32.201199
4408900000 -0.11765281 -33.710426
4608850000 -0.13061747 -35.249249
4808800000 -0.13071918 -36.692062
5008750000 -0.14294019 -38.232254
5208700000 -0.14954974 -39.743984
5408650000 -0.15897766 -41.281055
5608600000 -0.17039394 -42.766853
5808550000 -0.17683621 -44.268688
6008500000 -0.19135956 -45.777229
6208450000 -0.20666772 -47.241245
6408400000 -0.22735535 -48.7981
6608350000 -0.23455846 -50.21476
6808300000 -0.25045401 -51.773663
7008250000 -0.2603792 -53.233875
7208200000 -0.26779196 -54.715378
7408150000 -0.2877903 -56.243465
7608100000 -0.29998124 -57.723133
7808050000 -0.32194772 -59.187813
8008000000 -0.33321106 -60.643181
8207950000 -0.34466696 -62.132504
8407900000 -0.3545202 -63.58482
8607850000 -0.3776786 -65.516403
8807800000 -0.38917544 -66.622505
9007750000 -0.4013446 -68.058334
9207700000 -0.42278528 -69.49559
9407650000 -0.4320994 -70.957367
9607600000 -0.4517363 -72.44632
9807550000 -0.48270309 -73.885406
10007500000 -0.48431596 -75.378105
10207450000 -0.5211066 -76.933426
10407400000 -0.52797145 -78.376602
10607350000 -0.55690354 -79.633316
10807300000 -0.56493849 -81.077141
11007250000 -0.57551712 -82.514458
11207200000 -0.59931457 -83.978584
11407150000 -0.62298298 -85.374229
11607100000 -0.64057171 -86.897842
11807050000 -0.6498099 -88.222099
12007000000 -0.67674446 -89.883987
12206950000 -0.68277931 -91.222252
12406900000 -0.70309508 -92.73764
12606850000 -0.71957052 -93.93045
12806800000 -0.74671912 -95.498848
13006750000 -0.75319713 -96.794174
13206700000 -0.78532654 -98.244568
13406650000 -0.7872225 -99.666969
13606600000 -0.74410909 -97.173485
13806550000 -0.77292949 -99.187965
14006500000 -0.80575955 -101.03267
14206450000 -0.82684898 -103.1123
14406400000 -0.86127895 -104.90253
14606350000 -0.89119065 -107.01566
14806300000 -0.93217158 -108.97493
15006250000 -0.96397686 -111.08284
15206200000 -0.99444115 -112.74532
15406150000 -1.004877 -114.10923
15606100000 -1.0362506 -115.44126
15806050000 -1.0554792 -116.7752
16006000000 -1.069685 -118.02205
16205950000 -1.0940889 -119.32726
16405900000 -1.1052805 -120.70686
16605850000 -1.1414468 -122.01968
16805800000 -1.1567545 -123.41192
17005750000 -1.1794579 -124.85318
17205700000 -1.1983397 -126.12219
17405650000 -1.2177253 -127.49712
17605600000 -1.2608762 -128.80894
17805550000 -1.2712831 -130.26305
18005500000 -1.3082944 -131.50897
18205450000 -1.3195089 -132.87927
18405400000 -1.3524922 -134.17227
18605350000 -1.3650299 -135.51906
18805300000 -1.3902372 -136.89865
19005250000 -1.414554 -138.14117
19205200000 -1.4297923 -139.51794
19405150000 -1.469354 -140.83902
19605100000 -1.4691179 -142.09824
19805050000 -1.5052924 -143.47055
20005000000 -1.5149229 -144.69649
20204950000 -1.5565363 -146.07565
20404900000 -1.575534 -147.32875
20604850000 -1.5903412 -148.64561
20804800000 -1.6108851 -149.91647
21004750000 -1.64614 -151.18454
21204700000 -1.6686957 -152.60123
21404650000 -1.6910456 -153.81703
21604600000 -1.6961155 -155.12013
21804550000 -1.754588 -156.31454
22004500000 -1.7517076 -157.73322
22204450000 -1.7948784 -158.93579
22404400000 -1.7909769 -160.18492
22604350000 -1.8382339 -161.47411
22804300000 -1.8442315 -162.64163
23004250000 -1.8682233 -163.96533
23204200000 -1.8959193 -165.18019
23404150000 -1.9047034 -166.36459
23604100000 -1.9464947 -167.64616
23804050000 -1.9586987 -168.77527
24004000000 -1.9793679 -170.08514
24203950000 -1.9974532 -171.27342
24403900000 -2.0212231 -172.53751
24603850000 -2.0417855 -173.72708
24803800000 -2.0516913 -174.90022
25003750000 -2.0819006 -176.12105
25203700000 -2.0945988 -177.28781
25403650000 -2.1216974 -178.6212
25603600000 -2.1411228 -179.7079
25803550000 -2.1561382 178.95996
26003500000 -2.1778657 177.94794
26203450000 -2.1841919 176.62085
26403400000 -2.2146056 175.47586
26603350000 -2.2177038 174.27344
26803300000 -2.2510562 173.12782
27003250000 -2.255543 172.12027
27203200000 -2.2920315 170.75578
27403150000 -2.3014789 169.71193
27603100000 -2.3068881 168.58607
27803050000 -2.3565352 167.50349
28003000000 -2.3655958 166.48407
28202950000 -2.375397 165.15251
28402900000 -2.3805945 164.20938
28602850000 -2.3973832 162.82799
28802800000 -2.4415438 161.67166
29002750000 -2.4153826 160.5083
29202700000 -2.4964068 159.44725
29402650000 -2.45681 158.4128
29602600000 -2.5363822 157.18167
29802550000 -2.5157793 156.11563
30002500000 -2.5379064 155.00363
30202450000 -2.5288663 154.09016
30402400000 -2.5447953 153.20493
30602350000 -2.5909936 151.78491
30802300000 -2.5399811 151.0995
31002250000 -2.5738764 149.94328
31202200000 -2.5906188 149.53882
31402150000 -2.6391015 147.7919
31602100000 -2.655297 147.09644
31802050000 -2.6065688 145.64983
32002000000 -2.6651869 145.39731
32201950000 -2.6737041 143.64565
32401900000 -2.6580369 142.71484
32601850000 -2.6695366 141.73499
32801800000 -2.6727047 140.66971
33001750000 -2.7477229 139.69923
33201700000 -2.6645393 138.53725
33401650000 -2.7185245 137.68327
33601600000 -2.652617 136.84683
33801550000 -2.752214 135.666
34001500000 -2.6396024 135.0188
34201450000 -2.6702008 133.44643
34401400000 -2.637661 133.17697
34601350000 -2.6868932 131.95995
34801300000 -2.7127728 130.97047
35001250000 -2.6464975 129.71529
35201200000 -2.6315341 128.69057
35401150000 -2.5710833 128.6503
35601100000 -2.7469704 127.0785
35801050000 -2.6314907 126.29935
36001000000 -2.6660674 124.37896
36200950000 -2.6447341 124.00894
36400900000 -2.6378534 122.58994
36600850000 -2.7044742 121.57317
36800800000 -2.6527553 120.45391
37000750000 -2.6948562 119.22392
37200700000 -2.6612928 118.7378
37400650000 -2.682255 117.39429
37600600000 -2.7386172 116.73929
37800550000 -2.6231999 115.60545
38000500000 -2.6926582 114.82162
38200450000 -2.6069691 114.01574
38400400000 -2.6571038 113.11148
38600350000 -2.6627061 112.48954
38800300000 -2.6338284 110.78815
39000250000 -2.6588042 110.82826
39200200000 -2.6120052 108.62153
39400150000 -2.6649516 108.40105
39600100000 -2.6733053 106.94986
39800050000 -2.6506648 106.29691
40000000000 -2.6866188 105.34123
