!Agilent Technologies,N5227A,US51270434,A.10.00.00
!Agilent N5227A: A.10.00.00
!Date: Monday, March 30, 2026 11:21:29
!Correction: S11(Full 1 Port(1)) 
!S1P File: Measurement: S11:
# Hz S  dB   R 50
10000000 -0.0048360666 0.14874235
209950000 0.0075795716 -2.1364808
409900000 -0.00071269664 -4.2080855
609850000 -0.0017324557 -6.2688222
809800000 -0.0055310419 -8.3695145
1009750000 -0.011608823 -10.393332
1209700000 -0.026479635 -12.426346
1409650000 -0.022346282 -14.443137
1609600000 -0.033722747 -16.535286
1809550000 -0.041861944 -18.575968
2009500000 -0.055924077 -20.606991
2209450000 -0.066759177 -22.626654
2409400000 -0.089396968 -24.608187
2609350000 -0.089770325 -26.608212
2809300000 -0.11286055 -28.604998
3009250000 -0.12223197 -30.615412
3209200000 -0.13321923 -32.597717
3409150000 -0.13649879 -34.561478
3609100000 -0.15711807 -36.593441
3809050000 -0.18097436 -38.570332
4009000000 -0.19385698 -40.512032
4208950000 -0.21139541 -42.491962
4408900000 -0.22745793 -44.446327
4608850000 -0.25446728 -46.430641
4808800000 -0.26703268 -48.351967
5008750000 -0.28466946 -50.293297
5208700000 -0.30301133 -52.205235
5408650000 -0.32641828 -54.152477
5608600000 -0.34831142 -56.050461
5808550000 -0.36555976 -57.934963
6008500000 -0.38804412 -59.850327
6208450000 -0.40874738 -61.697838
6408400000 -0.43889999 -63.632542
6608350000 -0.46017098 -65.419243
6808300000 -0.48747969 -67.323906
7008250000 -0.50745815 -69.134026
7208200000 -0.5245595 -70.982452
7408150000 -0.55069911 -72.802185
7608100000 -0.57930416 -74.650795
7808050000 -0.6100288 -76.431999
8008000000 -0.62199938 -78.208778
8207950000 -0.64700317 -80.046738
8407900000 -0.66965008 -81.812096
8607850000 -0.69073975 -83.645363
8807800000 -0.71941435 -85.404831
9007750000 -0.73773617 -87.131081
9207700000 -0.76803178 -88.892174
9407650000 -0.79027313 -90.661934
9607600000 -0.81333566 -92.369164
9807550000 -0.85438496 -94.082458
10007500000 -0.8664884 -95.834198
10207450000 -0.91138279 -97.446075
10407400000 -0.92479414 -99.185081
10607350000 -0.96426141 -100.83336
10807300000 -0.98055428 -102.4677
11007250000 -1.0057585 -104.10174
11207200000 -1.030221 -105.73507
11407150000 -1.0591892 -107.38873
11607100000 -1.0826337 -109.11214
11807050000 -1.0997088 -110.6266
12007000000 -1.1304274 -112.35574
12206950000 -1.1456429 -113.809
12406900000 -1.1693016 -115.5675
12606850000 -1.1931422 -116.96368
12806800000 -1.2247896 -118.74167
13006750000 -1.2408785 -120.23061
13206700000 -1.2743158 -121.83263
13406650000 -1.2838657 -123.40543
13606600000 -1.1168275 -115.23489
13806550000 -1.1613978 -117.97841
14006500000 -1.2209495 -120.63938
14206450000 -1.2601901 -123.4489
14406400000 -1.3142902 -126.12812
14606350000 -1.3610157 -129.03152
14806300000 -1.4254923 -131.83981
15006250000 -1.4740288 -134.71346
15206200000 -1.5237218 -137.57234
15406150000 -1.5327374 -138.53442
15606100000 -1.5679345 -139.99873
15806050000 -1.587423 -141.46629
16006000000 -1.603339 -142.85632
16205950000 -1.6338577 -144.22769
16405900000 -1.6450359 -145.67641
16605850000 -1.680233 -146.99298
16805800000 -1.6977502 -148.48065
17005750000 -1.727114 -150.06679
17205700000 -1.7401294 -151.26848
17405650000 -1.7634739 -152.66039
17605600000 -1.798461 -154.03357
17805550000 -1.8102918 -155.42279
18005500000 -1.8397213 -156.76759
18205450000 -1.8571981 -158.10257
18405400000 -1.8845445 -159.44441
18605350000 -1.900766 -160.73578
18805300000 -1.9111413 -162.07562
19005250000 -1.9440939 -163.34596
19205200000 -1.9560198 -164.68497
19405150000 -1.9799166 -166.01221
19605100000 -1.9924036 -167.23216
19805050000 -2.0112908 -168.62398
20005000000 -2.0319879 -169.79074
20204950000 -2.0547395 -171.13884
20404900000 -2.0668087 -172.3577
20604850000 -2.0900042 -173.65665
20804800000 -2.1041801 -174.88425
21004750000 -2.1390591 -176.15051
21204700000 -2.1393948 -177.49727
21404650000 -2.1625531 -178.67331
21604600000 -2.1593227 -179.8651
21804550000 -2.2187784 178.85179
22004500000 -2.2158272 177.63365
22204450000 -2.2508605 176.40727
22404400000 -2.2442441 175.32295
22604350000 -2.2841103 174.01463
22804300000 -2.2829807 172.97989
23004250000 -2.2985113 171.71292
23204200000 -2.3207178 170.56357
23404150000 -2.3293958 169.45981
23604100000 -2.3560247 168.20377
23804050000 -2.3577833 167.23773
24004000000 -2.3821809 165.94044
24203950000 -2.3960714 164.87389
24403900000 -2.4047859 163.69168
24603850000 -2.4240651 162.5645
24803800000 -2.4178259 161.48055
25003750000 -2.4416165 160.37779
25203700000 -2.4640527 159.2525
25403650000 -2.4699626 158.04462
25603600000 -2.4844089 157.05498
25803550000 -2.4809189 155.80754
26003500000 -2.4942973 154.92729
26203450000 -2.49929 153.6615
26403400000 -2.5211203 152.58234
26603350000 -2.5077 151.49266
26803300000 -2.5376229 150.47156
27003250000 -2.5452485 149.52296
27203200000 -2.5607901 148.17949
27403150000 -2.5585697 147.32832
27603100000 -2.5743229 146.30789
27803050000 -2.6178286 145.30142
28003000000 -2.6139657 144.39447
28202950000 -2.6162961 143.1774
28402900000 -2.6225021 142.21973
28602850000 -2.6099432 141.01674
28802800000 -2.6502523 140.00334
29002750000 -2.6223402 138.97977
29202700000 -2.703496 137.91798
29402650000 -2.6540596 137.1073
29602600000 -2.7200375 135.86728
29802550000 -2.7010629 135.06277
30002500000 -2.7042983 134.01367
30202450000 -2.6963522 133.32385
30402400000 -2.715112 132.45422
30602350000 -2.736587 131.07626
30802300000 -2.6857421 130.65964
31002250000 -2.7126429 129.52127
31202200000 -2.7422156 129.19916
31402150000 -2.7684939 127.43832
31602100000 -2.7934947 126.94037
31802050000 -2.7185302 125.76892
32002000000 -2.7968299 125.50567
32201950000 -2.7521296 123.8797
32401900000 -2.7557738 123.13029
32601850000 -2.7486811 122.18813
32801800000 -2.7453806 121.39822
33001750000 -2.8217316 120.39531
33201700000 -2.7074032 119.54603
33401650000 -2.7857871 118.49544
33601600000 -2.7042282 118.03558
33801550000 -2.7860835 116.74389
34001500000 -2.6769838 116.43771
34201450000 -2.6886168 114.92062
34401400000 -2.6605377 114.87113
34601350000 -2.6918488 113.53342
34801300000 -2.7257383 112.69389
35001250000 -2.6526506 111.5892
35201200000 -2.6502702 110.85307
35401150000 -2.5910225 110.80882
35601100000 -2.7448573 109.10876
35801050000 -2.6268971 108.58251
36001000000 -2.6075413 106.77996
36200950000 -2.6159825 106.56293
36400900000 -2.6070969 105.25296
36600850000 -2.6469331 104.1526
36800800000 -2.6137233 103.49751
37000750000 -2.6394191 102.2501
37200700000 -2.6159644 101.95779
37400650000 -2.6071124 100.68689
37600600000 -2.6674328 99.976974
37800550000 -2.5530357 99.239403
38000500000 -2.6106591 98.213326
38200450000 -2.5392952 97.754196
38400400000 -2.5807278 96.768547
38600350000 -2.5815661 96.240242
38800300000 -2.5550218 94.918655
39000250000 -2.5588658 94.664398
39200200000 -2.5129623 92.853004
39400150000 -2.576762 92.575172
39600100000 -2.5848081 91.511497
39800050000 -2.5897565 90.638924
40000000000 -2.5984285 89.737488
