!Agilent Technologies,N5227A,US51270434,A.10.00.00
!Agilent N5227A: A.10.00.00
!Date: Monday, March 30, 2026 11:22:16
!Correction: S11(Full 1 Port(1)) 
!S1P File: Measurement: S11:
# Hz S  dB   R 50
10000000 -0.018988416 0.10482372
209950000 0.0050115995 -1.3700469
409900000 0.0050031962 -2.7276926
609850000 -0.0023203497 -4.1082416
809800000 -0.0021234755 -5.475275
1009750000 -0.0020370565 -6.7642856
1209700000 -0.011534126 -8.1065969
1409650000 -0.0097271279 -9.4154682
1609600000 -0.013672099 -10.79312
1809550000 -0.015774311 -12.117577
2009500000 -0.022404071 -13.441583
2209450000 -0.031441059 -14.809508
2409400000 -0.042231839 -16.10083
2609350000 -0.037797716 -17.398556
2809300000 -0.049320225 -18.716969
3009250000 -0.048157617 -20.035763
3209200000 -0.050770827 -21.337568
3409150000 -0.049861033 -22.66633
3609100000 -0.05792895 -24.033876
3809050000 -0.072204821 -25.337599
4009000000 -0.072207719 -26.666882
4208950000 -0.072780445 -27.979881
4408900000 -0.082473628 -29.326231
4608850000 -0.091209866 -30.656286
4808800000 -0.094130784 -31.930164
5008750000 -0.10054819 -33.278378
5208700000 -0.098862059 -34.588608
5408650000 -0.1088887 -35.942471
5608600000 -0.12110238 -37.240135
5808550000 -0.12124896 -38.591549
6008500000 -0.13126999 -39.892437
6208450000 -0.14260064 -41.178196
6408400000 -0.15585424 -42.578068
6608350000 -0.15727156 -43.830723
6808300000 -0.17384268 -45.188251
7008250000 -0.18209077 -46.48732
7208200000 -0.18706079 -47.795113
7408150000 -0.19921213 -49.139942
7608100000 -0.20836541 -50.472794
7808050000 -0.22688667 -51.763798
8008000000 -0.2326529 -53.067139
8207950000 -0.24548885 -54.39827
8407900000 -0.25072378 -55.67783
8607850000 -0.25980023 -57.059502
8807800000 -0.27634311 -58.351646
9007750000 -0.28276131 -59.656853
9207700000 -0.29907313 -60.922878
9407650000 -0.29956681 -62.287781
9607600000 -0.31691012 -63.579369
9807550000 -0.34396127 -64.877922
10007500000 -0.33953422 -66.211899
10207450000 -0.37051842 -67.431625
10407400000 -0.3770164 -68.823845
10607350000 -0.399185 -70.108589
10807300000 -0.39944538 -71.404633
11007250000 -0.41311365 -72.696617
11207200000 -0.43089047 -73.961479
11407150000 -0.44868219 -75.274948
11607100000 -0.46461147 -76.679916
11807050000 -0.4707959 -77.885986
12007000000 -0.49382478 -79.294357
12206950000 -0.49723181 -80.480232
12406900000 -0.51386529 -81.913467
12606850000 -0.51887995 -83.023689
12806800000 -0.54786325 -84.530251
13006750000 -0.54684627 -85.776245
13206700000 -0.57149649 -87.115898
13406650000 -0.57404238 -88.443581
13606600000 -0.5988704 -89.471825
13806550000 -0.60931718 -90.8965
14006500000 -0.63522816 -92.269661
14206450000 -0.6445142 -93.764336
14406400000 -0.65886599 -94.843117
14606350000 -0.67567974 -96.268463
14806300000 -0.70224142 -97.474472
15006250000 -0.71849293 -98.90168
15206200000 -0.73840415 -100.18143
15406150000 -0.74419123 -101.48087
15606100000 -0.77331448 -102.7944
15806050000 -0.78959632 -104.07929
16006000000 -0.80682153 -105.42519
16205950000 -0.83020163 -106.66254
16405900000 -0.83618808 -108.0027
16605850000 -0.86879247 -109.21833
16805800000 -0.88388765 -110.5259
17005750000 -0.902502 -111.9091
17205700000 -0.91829914 -113.11282
17405650000 -0.93230683 -114.44503
17605600000 -0.96893394 -115.65791
17805550000 -0.98504525 -117.05387
18005500000 -1.0147066 -118.25706
18205450000 -1.0233022 -119.54317
18405400000 -1.0572702 -120.79497
18605350000 -1.0705467 -122.08029
18805300000 -1.0907645 -123.44467
19005250000 -1.1164056 -124.57787
19205200000 -1.1345857 -125.96062
19405150000 -1.1667556 -127.20724
19605100000 -1.1733708 -128.44199
19805050000 -1.2039938 -129.79222
20005000000 -1.2065276 -130.99069
20204950000 -1.2546269 -132.2998
20404900000 -1.2658521 -133.54836
20604850000 -1.28203 -134.81398
20804800000 -1.3034981 -136.09261
21004750000 -1.3296927 -137.25861
21204700000 -1.3651661 -138.67944
21404650000 -1.3846167 -139.83615
21604600000 -1.3910024 -141.15031
21804550000 -1.4437933 -142.32739
22004500000 -1.4488305 -143.74615
22204450000 -1.4853512 -144.87964
22404400000 -1.4820613 -146.19211
22604350000 -1.5365545 -147.42802
22804300000 -1.540565 -148.60161
23004250000 -1.5664526 -149.90881
23204200000 -1.5937176 -151.1516
23404150000 -1.6013852 -152.33614
23604100000 -1.6471792 -153.59027
23804050000 -1.6574312 -154.76961
24004000000 -1.6846396 -156.02454
24203950000 -1.6962751 -157.20822
24403900000 -1.7335354 -158.48384
24603850000 -1.7509836 -159.71841
24803800000 -1.7638682 -160.92578
25003750000 -1.7895609 -162.03662
25203700000 -1.8172041 -163.3074
25403650000 -1.8443323 -164.61943
25603600000 -1.8597814 -165.68259
25803550000 -1.8837651 -167.05237
26003500000 -1.8931085 -168.03615
26203450000 -1.9257936 -169.44215
26403400000 -1.9530374 -170.59758
26603350000 -1.9623553 -171.82857
26803300000 -1.9919976 -172.96465
27003250000 -2.0038717 -174.00748
27203200000 -2.0521059 -175.39827
27403150000 -2.0530498 -176.43593
27603100000 -2.076792 -177.61868
27803050000 -2.1196351 -178.73067
28003000000 -2.1237988 -179.83873
28202950000 -2.1573997 178.86635
28402900000 -2.1550987 177.86925
28602850000 -2.1838841 176.461
28802800000 -2.2154629 175.33925
29002750000 -2.2012191 174.08487
29202700000 -2.2793896 173.02658
29402650000 -2.2482555 171.85851
29602600000 -2.3328865 170.73137
29802550000 -2.3151271 169.62369
30002500000 -2.3475661 168.47372
30202450000 -2.3406441 167.56129
30402400000 -2.361047 166.47745
30602350000 -2.4119167 165.02444
30802300000 -2.3729098 164.25134
31002250000 -2.4150782 163.09451
31202200000 -2.4472256 162.69409
31402150000 -2.4995248 160.90549
31602100000 -2.4945693 160.24086
31802050000 -2.4581344 158.49634
32002000000 -2.5100465 158.37465
32201950000 -2.5349405 156.48309
32401900000 -2.524303 155.52808
32601850000 -2.54282 154.58296
32801800000 -2.5450084 153.351
33001750000 -2.6251178 152.46979
33201700000 -2.5470161 151.11554
33401650000 -2.6226845 150.22694
33601600000 -2.54351 149.20296
33801550000 -2.6416571 148.05061
34001500000 -2.553031 147.33046
34201450000 -2.5729914 145.77617
34401400000 -2.5328884 145.3354
34601350000 -2.6049054 144.14146
34801300000 -2.639519 143.21521
35001250000 -2.5739965 141.7982
35201200000 -2.5878212 140.79463
35401150000 -2.4957919 140.66403
35601100000 -2.6982989 139.18755
35801050000 -2.5625725 138.1104
36001000000 -2.613735 136.18166
36200950000 -2.5865514 135.77487
36400900000 -2.5987606 134.26212
36600850000 -2.6835351 133.27127
36800800000 -2.62327 132.07805
37000750000 -2.6683989 130.87558
37200700000 -2.6452935 130.18515
37400650000 -2.6466618 128.80942
37600600000 -2.711899 128.25385
37800550000 -2.6003175 126.88751
38000500000 -2.6748257 126.0975
38200450000 -2.6166549 125.11002
38400400000 -2.6635141 124.13158
38600350000 -2.6577942 123.65015
38800300000 -2.6543264 121.80457
39000250000 -2.6223884 121.79409
39200200000 -2.6135707 119.48602
39400150000 -2.6603889 119.21066
39600100000 -2.6798797 117.86749
39800050000 -2.6582904 116.8756
40000000000 -2.6891301 116.01687
