!Agilent Technologies,N5227A,US51270434,A.10.00.00
!Agilent N5227A: A.10.00.00
!Date: Monday, March 30, 2026 11:21:14
!Correction: S11(Full 1 Port(1)) 
!S1P File: Measurement: S11:
# Hz S  dB   R 50
10000000 -0.01875045 0.12472083
209950000 -0.0018690348 -3.8625693
409900000 -0.014684062 -7.773026
609850000 -0.031201117 -11.436629
809800000 -0.058599282 -15.591502
1009750000 -0.084167995 -19.449085
1209700000 -0.12987849 -23.284191
1409650000 -0.15818353 -27.191406
1609600000 -0.18769719 -31.062246
1809550000 -0.24990785 -34.755802
2009500000 -0.28524148 -38.575119
2209450000 -0.32666019 -42.208008
2409400000 -0.39325058 -46.005653
2609350000 -0.40115273 -49.064915
2809300000 -0.4840638 -52.848419
3009250000 -0.52557468 -55.990219
3209200000 -0.53699082 -58.90134
3409150000 -0.57952625 -61.911964
3609100000 -0.63180977 -65.037964
3809050000 -0.7006731 -68.264084
4009000000 -0.73267394 -71.03186
4208950000 -0.78048402 -73.848816
4408900000 -0.82729226 -76.869476
4608850000 -0.88732255 -79.729492
4808800000 -0.90814769 -82.176315
5008750000 -0.95876396 -85.193939
5208700000 -1.0184387 -87.906403
5408650000 -1.0623727 -90.475319
5608600000 -1.0967921 -92.776398
5808550000 -1.1357112 -95.351784
6008500000 -1.1682792 -97.744934
6208450000 -1.2265694 -100.31035
6408400000 -1.2614863 -102.59612
6608350000 -1.3000098 -104.77099
6808300000 -1.3608009 -107.31572
7008250000 -1.3897228 -109.45325
7208200000 -1.4193769 -111.65591
7408150000 -1.4616903 -113.92574
7608100000 -1.4894751 -115.97981
7808050000 -1.5314602 -118.11191
8008000000 -1.5507041 -120.08792
8207950000 -1.5780377 -122.15059
8407900000 -1.6038784 -124.06592
8607850000 -1.6322972 -126.13564
8807800000 -1.6575147 -127.9695
9007750000 -1.6831285 -129.90416
9207700000 -1.7125554 -131.84665
9407650000 -1.7370714 -133.70695
9607600000 -1.7737763 -135.6212
9807550000 -1.7995666 -137.44101
10007500000 -1.8186625 -139.10612
10207450000 -1.8617356 -140.97873
10407400000 -1.8845477 -142.6302
10607350000 -1.9138182 -144.33855
10807300000 -1.9324741 -145.88412
11007250000 -1.9511753 -147.52338
11207200000 -1.9730452 -149.18425
11407150000 -1.9949248 -150.80611
11607100000 -2.0045578 -152.38947
11807050000 -2.0327921 -153.83728
12007000000 -2.0335531 -155.42172
12206950000 -2.0655227 -156.8485
12406900000 -2.0707963 -158.42842
12606850000 -2.1124535 -159.80434
12806800000 -2.1106336 -161.39812
13006750000 -2.1301005 -162.79872
13206700000 -2.1490645 -164.29814
13406650000 -2.1598382 -165.71835
13606600000 -1.8626845 -150.74599
13806550000 -1.9029617 -153.62962
14006500000 -1.9683001 -156.62955
14206450000 -2.002346 -159.73335
14406400000 -2.0707858 -163.02831
14606350000 -2.1182444 -166.46545
14806300000 -2.1859426 -170.04878
15006250000 -2.2317312 -173.58612
15206200000 -2.2935865 -177.28291
15406150000 -2.348582 179.38666
15606100000 -2.3613722 178.22955
15806050000 -2.3673372 177.30489
16006000000 -2.3638592 177.06245
16205950000 -2.375597 175.85699
16405900000 -2.3780799 174.7001
16605850000 -2.4022963 173.5197
16805800000 -2.4040558 172.29913
17005750000 -2.4042215 171.1091
17205700000 -2.4287603 169.99406
17405650000 -2.4387717 168.82312
17605600000 -2.4559879 167.61163
17805550000 -2.4591289 166.53207
18005500000 -2.4735129 165.37949
18205450000 -2.4867411 164.30354
18405400000 -2.4928868 163.14247
18605350000 -2.5028849 162.15089
18805300000 -2.507807 161.04285
19005250000 -2.5193489 159.9243
19205200000 -2.5236087 158.91504
19405150000 -2.5248513 157.82507
19605100000 -2.534004 156.84714
19805050000 -2.5313022 155.74028
20005000000 -2.5628324 154.83861
20204950000 -2.5521555 153.67691
20404900000 -2.5610468 152.74574
20604850000 -2.5703905 151.64069
20804800000 -2.5770106 150.64471
21004750000 -2.6002536 149.54503
21204700000 -2.5758152 148.57658
21404650000 -2.6001985 147.57698
21604600000 -2.5936921 146.67015
21804550000 -2.6218731 145.47934
22004500000 -2.6115067 144.64189
22204450000 -2.6375809 143.57695
22404400000 -2.6267531 142.86398
22604350000 -2.6431339 141.71867
22804300000 -2.655513 140.93445
23004250000 -2.6365035 139.87352
23204200000 -2.6534665 139.01721
23404150000 -2.6622543 138.1552
23604100000 -2.6703155 137.05656
23804050000 -2.6661198 136.30649
24004000000 -2.6806126 135.25842
24203950000 -2.7009022 134.44347
24403900000 -2.6781557 133.51686
24603850000 -2.6942995 132.6506
24803800000 -2.6777802 131.81725
25003750000 -2.6879063 130.84734
25203700000 -2.702657 129.92711
25403650000 -2.6898668 128.96651
25603600000 -2.7010357 128.20526
25803550000 -2.667819 127.20199
26003500000 -2.7033565 126.49439
26203450000 -2.675288 125.50005
26403400000 -2.6961038 124.59194
26603350000 -2.6583185 123.79155
26803300000 -2.6955175 122.87964
27003250000 -2.7001748 122.13945
27203200000 -2.6938407 120.99116
27403150000 -2.6931059 120.36649
27603100000 -2.6935542 119.50106
27803050000 -2.7328696 118.6777
28003000000 -2.7238045 118.04825
28202950000 -2.7186139 117.02586
28402900000 -2.7186298 116.29382
28602850000 -2.6887398 115.30496
28802800000 -2.7273395 114.38004
29002750000 -2.7027359 113.6943
29202700000 -2.7499101 112.698
29402650000 -2.7151833 112.21394
29602600000 -2.7640817 111.06094
29802550000 -2.731178 110.4354
30002500000 -2.7306981 109.68895
30202450000 -2.7346063 109.14046
30402400000 -2.7407963 108.47649
30602350000 -2.7411895 107.29699
30802300000 -2.691891 107.20718
31002250000 -2.7001643 106.31957
31202200000 -2.7823677 105.83107
31402150000 -2.7546608 104.42659
31602100000 -2.7789829 104.08791
31802050000 -2.6962066 103.18107
32002000000 -2.7800672 102.70696
32201950000 -2.7270663 101.49236
32401900000 -2.7039101 101.00804
32601850000 -2.719979 100.0975
32801800000 -2.6884613 99.592636
33001750000 -2.7738917 98.657516
33201700000 -2.6590493 98.078949
33401650000 -2.7174311 97.160744
33601600000 -2.64535 96.922318
33801550000 -2.6916089 95.7229
34001500000 -2.6342571 95.657997
34201450000 -2.582463 94.219261
34401400000 -2.6137846 94.322876
34601350000 -2.5908518 93.319786
34801300000 -2.6221287 92.49147
35001250000 -2.5555167 91.685081
35201200000 -2.5628147 90.873642
35401150000 -2.5313709 91.132706
35601100000 -2.6350195 89.370171
35801050000 -2.5317783 89.086655
36001000000 -2.4959061 87.549728
36200950000 -2.515815 87.450905
36400900000 -2.5136244 86.247124
36600850000 -2.5272017 85.274582
36800800000 -2.5075397 84.831139
37000750000 -2.5023422 83.821159
37200700000 -2.4953473 83.610558
37400650000 -2.4788868 82.535492
37600600000 -2.5488956 81.805351
37800550000 -2.4244359 81.411224
38000500000 -2.4812031 80.318596
38200450000 -2.3785965 80.230377
38400400000 -2.4314234 79.357124
38600350000 -2.4694448 78.905334
38800300000 -2.3977029 77.561081
39000250000 -2.436759 77.421173
39200200000 -2.3593671 75.722107
39400150000 -2.4575555 75.59343
39600100000 -2.444288 74.602188
39800050000 -2.4522007 73.84008
40000000000 -2.4628088 73.136078
