!Agilent Technologies,N5227A,US51270434,A.10.00.00
!Agilent N5227A: A.10.00.00
!Date: Monday, January 26, 2026 17:35:08
!Correction: S11(Full 1 Port(1)) 
!S1P File: Measurement: S11:
# Hz S  dB   R 50
10000000 -13.912081 -177.74283
209950000 -14.112993 -179.18953
409900000 -14.06065 -178.4731
609850000 -14.054042 -177.71811
809800000 -14.033016 -176.68414
1009750000 -14.03122 -176.07826
1209700000 -13.956792 -175.44353
1409650000 -13.914349 -174.46658
1609600000 -13.887817 -174.03569
1809550000 -13.826367 -173.27454
2009500000 -13.739598 -172.71864
2209450000 -13.705252 -171.61124
2409400000 -13.653574 -171.48802
2609350000 -13.530785 -170.70512
2809300000 -13.457399 -169.99463
3009250000 -13.397886 -169.36618
3209200000 -13.309287 -169.14169
3409150000 -13.167707 -168.59888
3609100000 -13.136684 -167.67076
3809050000 -13.022552 -167.84924
4009000000 -12.898092 -167.04987
4208950000 -12.787272 -166.91998
4408900000 -12.718555 -166.24458
4608850000 -12.594627 -166.41229
4808800000 -12.438665 -165.58295
5008750000 -12.412973 -165.29848
5208700000 -12.26907 -165.49068
5408650000 -12.134704 -165.1064
5608600000 -11.993525 -164.72334
5808550000 -11.971205 -164.39038
6008500000 -11.770179 -164.88034
6208450000 -11.660613 -164.16669
6408400000 -11.550066 -164.30116
6608350000 -11.480513 -164.28183
6808300000 -11.298393 -164.48605
7008250000 -11.179908 -163.97256
7208200000 -11.123414 -164.25441
7408150000 -10.92625 -164.37917
7608100000 -10.843128 -164.19241
7808050000 -10.69028 -164.30653
8008000000 -10.62788 -164.5191
8207950000 -10.410948 -164.61963
8407900000 -10.368718 -164.33421
8607850000 -10.246081 -164.9472
8807800000 -10.086773 -165.05756
9007750000 -9.9569054 -164.9794
9207700000 -9.8831921 -165.06328
9407650000 -9.7833843 -165.76546
9607600000 -9.5874119 -165.78644
9807550000 -9.5234489 -165.88365
10007500000 -9.4155102 -166.32695
10207450000 -9.3072252 -166.93585
10407400000 -9.1335487 -166.81581
10607350000 -9.0902128 -167.20412
10807300000 -8.9479342 -167.84386
11007250000 -8.813139 -167.83302
11207200000 -8.7308435 -168.27124
11407150000 -8.6343517 -168.78864
11607100000 -8.4568272 -169.49376
11807050000 -8.337285 -169.20645
12007000000 -8.2876997 -169.94919
12206950000 -8.1630478 -170.4485
12406900000 -8.0017939 -170.87979
12606850000 -7.960938 -171.00041
12806800000 -7.867126 -171.80626
13006750000 -7.7098823 -172.40262
13206700000 -7.5941491 -172.4834
13406650000 -7.5444064 -173.29291
13606600000 -7.4676018 -173.85904
13806550000 -7.2998276 -174.31404
14006500000 -7.2582803 -174.65714
14206450000 -7.1566558 -175.67194
14406400000 -7.0117006 -176.0014
14606350000 -6.9567013 -176.30478
14806300000 -6.8945465 -177.34343
15006250000 -6.7595854 -178.08899
15206200000 -6.5676136 -178.28273
15406150000 -6.6053724 -178.564
15606100000 -6.5109119 -179.95461
15806050000 -6.3508058 179.58601
16006000000 -6.2345133 179.30759
16205950000 -6.2453027 178.59102
16405900000 -6.0892758 177.53584
16605850000 -5.96492 177.42027
16805800000 -5.9820366 176.67076
17005750000 -5.850316 175.61761
17205700000 -5.7080355 175.09593
17405650000 -5.6300554 175.05602
17605600000 -5.7042747 173.87703
17805550000 -5.5264831 172.80824
18005500000 -5.4083443 172.54706
18205450000 -5.4172564 172.05687
18405400000 -5.3707457 170.80673
18605350000 -5.1762662 169.96501
18805300000 -5.1113153 169.97571
19005250000 -5.1616869 168.80559
19205200000 -5.0006456 167.77899
19405150000 -4.8818951 167.13869
19605100000 -4.8706393 166.88838
19805050000 -4.815155 165.50034
20005000000 -4.645123 165.02924
20204950000 -4.6442733 164.50087
20404900000 -4.6273184 163.50192
20604850000 -4.4810309 162.32024
20804800000 -4.3356013 161.96385
21004750000 -4.4522443 161.72459
21204700000 -4.4030399 159.97203
21404650000 -4.2351241 159.05943
21604600000 -4.1492543 159.08656
21804550000 -4.2742939 158.18352
22004500000 -4.1521511 156.79974
22204450000 -4.0380936 156.15765
22404400000 -4.0589519 156.05652
22604350000 -4.011168 154.38486
22804300000 -3.924499 153.73866
23004250000 -3.8254716 153.133
23204200000 -3.8845673 152.50975
23404150000 -3.7503562 150.91159
23604100000 -3.6877196 150.64761
23804050000 -3.7157495 150.15273
24004000000 -3.6647742 148.85858
24203950000 -3.5717654 147.71799
24403900000 -3.5019097 147.71268
24603850000 -3.595377 146.70143
24803800000 -3.4372859 145.33685
25003750000 -3.4298229 144.82027
25203700000 -3.3839922 144.62067
25403650000 -3.4349787 143.29938
25603600000 -3.320616 142.15668
25803550000 -3.2617335 141.783
26003500000 -3.2818103 140.93842
26203450000 -3.2102768 139.81213
26403400000 -3.2014694 138.97212
26603350000 -3.13904 138.55598
26803300000 -3.2042093 136.96933
27003250000 -3.0425396 136.41725
27203200000 -3.1020389 136.06029
27403150000 -3.0632651 134.84686
27603100000 -3.0238068 133.94194
27803050000 -2.9715598 133.40115
28003000000 -2.9740016 133.26923
28202950000 -2.9654026 131.44397
28402900000 -2.8785136 131.0863
28602850000 -2.8731987 130.1371
28802800000 -2.9002674 129.52942
29002750000 -2.8400667 128.03648
29202700000 -2.8211644 127.81416
29402650000 -2.822468 127.2757
29602600000 -2.8380709 125.83886
29802550000 -2.7949688 125.42789
30002500000 -2.7814913 124.31087
30202450000 -2.7713666 123.82125
30402400000 -2.7294252 122.63972
30602350000 -2.7189224 122.25447
30802300000 -2.7069702 121.30895
31002250000 -2.657021 120.13967
31202200000 -2.6259687 120.29634
31402150000 -2.6432366 119.21712
31602100000 -2.7243207 118.60061
31802050000 -2.596395 116.96356
32002000000 -2.6130264 117.35947
32201950000 -2.6087706 116.05862
32401900000 -2.6411397 114.98731
32601850000 -2.5634699 114.35252
32801800000 -2.5766952 113.66321
33001750000 -2.6532452 112.93158
33201700000 -2.536504 111.98505
33401650000 -2.5914428 111.44569
33601600000 -2.4989882 110.70837
33801550000 -2.610584 109.73385
34001500000 -2.4674747 109.5391
34201450000 -2.5438337 108.38992
34401400000 -2.5081289 107.74617
34601350000 -2.4640067 106.88699
34801300000 -2.5417929 106.92027
35001250000 -2.4742217 105.40086
35201200000 -2.5178516 104.67796
35401150000 -2.3057408 104.60583
35601100000 -2.4611089 103.79871
35801050000 -2.4754457 103.12137
36001000000 -2.390604 101.34531
36200950000 -2.4063673 101.59203
36400900000 -2.4097984 100.31295
36600850000 -2.4636042 99.592819
36800800000 -2.3737175 98.760147
37000750000 -2.3962674 97.826019
37200700000 -2.3713148 97.433632
37400650000 -2.330349 96.445076
37600600000 -2.3915308 96.260132
37800550000 -2.3559313 95.016319
38000500000 -2.4087462 94.136223
38200450000 -2.29866 94.018318
38400400000 -2.4239221 92.634148
38600350000 -2.3382454 92.590637
38800300000 -2.3325202 91.209633
39000250000 -2.3420565 91.12442
39200200000 -2.3577716 90.15815
39400150000 -2.3758006 89.621857
39600100000 -2.2374225 88.6577
39800050000 -2.3224602 88.026031
40000000000 -2.2948754 86.867668
