!Agilent Technologies,N5227A,US51270434,A.10.00.00
!Agilent N5227A: A.10.00.00
!Date: Monday, January 26, 2026 17:35:26
!Correction: S11(Full 1 Port(1)) 
!S1P File: Measurement: S11:
# Hz S  dB   R 50
10000000 -14.987379 -177.90865
209950000 -15.113303 -179.44151
409900000 -15.061799 -178.99406
609850000 -15.06726 -178.52267
809800000 -15.047591 -177.76428
1009750000 -15.082152 -177.44301
1209700000 -15.008859 -177.0556
1409650000 -14.985092 -176.30754
1609600000 -14.980162 -176.1011
1809550000 -14.926173 -175.52521
2009500000 -14.860781 -175.22119
2209450000 -14.862658 -174.20932
2409400000 -14.845218 -174.2428
2609350000 -14.729381 -173.71571
2809300000 -14.706871 -173.08238
3009250000 -14.68956 -172.63666
3209200000 -14.622671 -172.5043
3409150000 -14.498886 -172.18999
3609100000 -14.51737 -171.21924
3809050000 -14.430045 -171.57846
4009000000 -14.335066 -170.72977
4208950000 -14.25135 -170.70642
4408900000 -14.237838 -169.9684
4608850000 -14.149562 -170.27466
4808800000 -14.025506 -169.28844
5008750000 -14.044528 -169.18919
5208700000 -13.918054 -169.28961
5408650000 -13.821456 -168.74187
5608600000 -13.716332 -168.36771
5808550000 -13.751097 -168.04784
6008500000 -13.550721 -168.56517
6208450000 -13.489294 -167.61061
6408400000 -13.415247 -167.68416
6608350000 -13.376139 -167.58296
6808300000 -13.205925 -167.77956
7008250000 -13.121432 -166.9558
7208200000 -13.115896 -167.26378
7408150000 -12.928313 -167.2139
7608100000 -12.883064 -166.87524
7808050000 -12.732309 -166.8102
8008000000 -12.727947 -166.98558
8207950000 -12.504289 -166.90442
8407900000 -12.509336 -166.36627
8607850000 -12.396271 -166.91533
8807800000 -12.264368 -166.84198
9007750000 -12.148396 -166.58105
9207700000 -12.107397 -166.4005
9407650000 -12.042098 -167.15697
9607600000 -11.830725 -166.80443
9807550000 -11.808558 -166.70634
10007500000 -11.729072 -166.96297
10207450000 -11.614654 -167.61217
10407400000 -11.437916 -167.12296
10607350000 -11.422127 -167.35847
10807300000 -11.294576 -167.85994
11007250000 -11.167157 -167.56622
11207200000 -11.115148 -167.81775
11407150000 -11.023857 -168.19066
11607100000 -10.839367 -168.85768
11807050000 -10.724769 -168.07892
12007000000 -10.695302 -168.80301
12206950000 -10.579633 -169.12541
12406900000 -10.409925 -169.35011
12606850000 -10.384742 -169.10095
12806800000 -10.314166 -169.82123
13006750000 -10.133017 -170.40294
13206700000 -10.029998 -170.11012
13406650000 -9.9966164 -170.70634
13606600000 -9.9171772 -171.10681
13806550000 -9.7366762 -171.37463
14006500000 -9.7186708 -171.43896
14206450000 -9.6098766 -172.35237
14406400000 -9.448493 -172.54317
14606350000 -9.4204693 -172.4852
14806300000 -9.3608284 -173.49995
15006250000 -9.1975613 -174.1813
15206200000 -8.9828224 -174.09618
15406150000 -9.0511713 -173.93916
15606100000 -8.9555874 -175.40192
15806050000 -8.7780151 -175.71065
16006000000 -8.6401682 -175.6684
16205950000 -8.6734142 -176.10724
16405900000 -8.5100775 -177.16737
16605850000 -8.3562031 -176.92453
16805800000 -8.3904324 -177.44107
17005750000 -8.2478094 -178.49944
17205700000 -8.0807447 -178.88203
17405650000 -7.9838657 -178.47887
17605600000 -8.0957642 -179.54585
17805550000 -7.8864408 179.28271
18005500000 -7.7373643 179.39334
18205450000 -7.7565212 179.21078
18405400000 -7.7144141 177.92711
18605350000 -7.4912519 177.05209
18805300000 -7.3704948 177.51555
19005250000 -7.4703932 176.52908
19205200000 -7.2916183 175.48119
19405150000 -7.139677 174.92412
19605100000 -7.1208062 175.13181
19805050000 -7.0663066 173.66141
20005000000 -6.843215 173.39003
20204950000 -6.8430972 173.18237
20404900000 -6.8355317 172.26917
20604850000 -6.6645279 171.03932
20804800000 -6.4607763 170.99115
21004750000 -6.5882778 171.2101
21204700000 -6.5598793 169.2018
21404650000 -6.3382349 168.39604
21604600000 -6.2043262 168.70941
21804550000 -6.3515396 168.12807
22004500000 -6.2239323 166.58836
22204450000 -6.0588241 166.02255
22404400000 -6.0529819 166.26006
22604350000 -6.0262513 164.552
22804300000 -5.9018602 164.06769
23004250000 -5.7656627 163.4418
23204200000 -5.8218284 163.25195
23404150000 -5.675499 161.48376
23604100000 -5.5624452 161.40504
23804050000 -5.5735593 161.05093
24004000000 -5.518507 159.87787
24203950000 -5.396018 158.724
24403900000 -5.2656341 158.90091
24603850000 -5.3936682 158.14072
24803800000 -5.1889324 156.57344
25003750000 -5.1423597 156.19701
25203700000 -5.0655513 156.26007
25403650000 -5.1309891 155.07133
25603600000 -4.9830823 153.75832
25803550000 -4.8859668 153.50204
26003500000 -4.9036322 152.83458
26203450000 -4.8010621 151.70734
26403400000 -4.7730436 150.89842
26603350000 -4.6717672 150.53964
26803300000 -4.7372084 149.13341
27003250000 -4.5262351 148.50267
27203200000 -4.5697584 148.32043
27403150000 -4.5147352 147.05974
27603100000 -4.4605284 146.20259
27803050000 -4.3593388 145.61494
28003000000 -4.3244867 145.61809
28202950000 -4.3270292 143.79227
28402900000 -4.189939 143.40091
28602850000 -4.1636577 142.60028
28802800000 -4.1663294 142.08482
29002750000 -4.1017184 140.3933
29202700000 -4.0375834 140.24167
29402650000 -4.0101562 139.84932
29602600000 -4.0317149 138.347
29802550000 -3.9398093 137.94232
30002500000 -3.9152348 136.76677
30202450000 -3.8719752 136.298
30402400000 -3.8094792 134.987
30602350000 -3.7757161 134.76233
30802300000 -3.765707 133.77293
31002250000 -3.688231 132.49568
31202200000 -3.6251438 132.78378
31402150000 -3.6032293 131.7175
31602100000 -3.6639583 131.15007
31802050000 -3.5427756 129.21916
32002000000 -3.4884377 129.84166
32201950000 -3.4902685 128.53325
32401900000 -3.5077603 127.26665
32601850000 -3.4013362 126.63239
32801800000 -3.3914254 125.98241
33001750000 -3.4533601 125.25751
33201700000 -3.3028507 124.074
33401650000 -3.3596971 123.61148
33601600000 -3.2256517 122.7061
33801550000 -3.3262148 121.89513
34001500000 -3.1653185 121.3727
34201450000 -3.2196598 120.35814
34401400000 -3.1634154 119.73062
34601350000 -3.0937059 118.69496
34801300000 -3.1461658 118.91025
35001250000 -3.0698676 117.16865
35201200000 -3.0940762 116.4054
35401150000 -2.8658023 116.15846
35601100000 -2.9972885 115.52049
35801050000 -3.0104105 114.59249
36001000000 -2.9268315 112.82445
36200950000 -2.8804007 113.04762
36400900000 -2.8741121 111.66557
36600850000 -2.9127378 110.98904
36800800000 -2.8112776 109.91927
37000750000 -2.8315837 109.06422
37200700000 -2.7857108 108.49173
37400650000 -2.7355311 107.46546
37600600000 -2.7467079 107.22895
37800550000 -2.7236207 105.91712
38000500000 -2.7809389 105.02547
38200450000 -2.6396482 104.63963
38400400000 -2.7272036 103.41534
38600350000 -2.6018991 103.24143
38800300000 -2.6398206 101.79725
39000250000 -2.6005828 101.9562
39200200000 -2.6378813 100.45263
39400150000 -2.6336505 100.01205
39600100000 -2.4656105 99.009254
39800050000 -2.5298042 98.403099
40000000000 -2.5201888 97.233055
