!Agilent Technologies,N5227A,US51270434,A.10.00.00
!Agilent N5227A: A.10.00.00
!Date: Monday, January 26, 2026 17:35:43
!Correction: S11(Full 1 Port(1)) 
!S1P File: Measurement: S11:
# Hz S  dB   R 50
10000000 -17.244383 -176.68953
209950000 -17.488962 -179.29945
409900000 -17.409925 -178.69154
609850000 -17.391596 -177.99359
809800000 -17.406891 -176.95149
1009750000 -17.443457 -176.38045
1209700000 -17.333416 -175.90004
1409650000 -17.29875 -174.96867
1609600000 -17.321812 -174.64192
1809550000 -17.249277 -173.73964
2009500000 -17.146849 -173.29001
2209450000 -17.150925 -172.12338
2409400000 -17.127584 -171.99078
2609350000 -16.977699 -171.25645
2809300000 -16.936304 -170.46176
3009250000 -16.914736 -169.91852
3209200000 -16.814251 -169.74014
3409150000 -16.664289 -169.16762
3609100000 -16.693237 -167.9265
3809050000 -16.585375 -168.2524
4009000000 -16.452213 -167.14372
4208950000 -16.35355 -167.20239
4408900000 -16.325171 -166.11055
4608850000 -16.213659 -166.39771
4808800000 -16.060062 -165.24551
5008750000 -16.08411 -165.04192
5208700000 -15.932709 -165.14024
5408650000 -15.813577 -164.45531
5608600000 -15.682434 -163.96571
5808550000 -15.727125 -163.36108
6008500000 -15.474386 -164.06055
6208450000 -15.400516 -162.72894
6408400000 -15.324656 -162.85005
6608350000 -15.285132 -162.65477
6808300000 -15.078446 -162.91968
7008250000 -14.964517 -161.86783
7208200000 -14.960961 -162.0907
7408150000 -14.730387 -162.11473
7608100000 -14.668645 -161.68459
7808050000 -14.50923 -161.53792
8008000000 -14.497212 -161.54395
8207950000 -14.236721 -161.58511
8407900000 -14.245307 -160.79942
8607850000 -14.122237 -161.45628
8807800000 -13.958265 -161.35158
9007750000 -13.833468 -161.00471
9207700000 -13.780241 -160.68649
9407650000 -13.71674 -161.5233
9607600000 -13.463535 -161.11153
9807550000 -13.446509 -160.84297
10007500000 -13.35157 -161.1039
10207450000 -13.239655 -161.84274
10407400000 -13.024678 -161.28023
10607350000 -13.020017 -161.44728
10807300000 -12.86664 -161.99986
11007250000 -12.721909 -161.7
11207200000 -12.663276 -161.90225
11407150000 -12.564409 -162.24535
11607100000 -12.371953 -163.00534
11807050000 -12.227386 -162.14368
12007000000 -12.212855 -162.81035
12206950000 -12.082525 -163.09158
12406900000 -11.894539 -163.35353
12606850000 -11.864 -162.96075
12806800000 -11.788454 -163.73648
13006750000 -11.590482 -164.36194
13206700000 -11.470547 -164.00386
13406650000 -11.441479 -164.5936
13606600000 -11.363199 -165.01987
13806550000 -11.165355 -165.34839
14006500000 -11.150846 -165.18063
14206450000 -11.043764 -166.30896
14406400000 -10.86176 -166.42793
14606350000 -10.82498 -166.26326
14806300000 -10.774642 -167.29558
15006250000 -10.603187 -168.03809
15206200000 -10.356469 -167.99631
15406150000 -10.43216 -167.54443
15606100000 -10.341357 -169.19972
15806050000 -10.146552 -169.56583
16006000000 -9.9913177 -169.37723
16205950000 -10.033772 -169.75085
16405900000 -9.851634 -170.96405
16605850000 -9.6750164 -170.65761
16805800000 -9.7305756 -171.04399
17005750000 -9.584197 -172.2254
17205700000 -9.3958206 -172.59375
17405650000 -9.2761936 -172.02908
17605600000 -9.4199991 -172.9902
17805550000 -9.1997004 -174.38644
18005500000 -9.0243349 -174.14572
18205450000 -9.0381594 -174.15671
18405400000 -9.0276785 -175.57248
18605350000 -8.78302 -176.59137
18805300000 -8.634778 -175.90372
19005250000 -8.7620564 -176.85608
19205200000 -8.5770378 -178.02919
19405150000 -8.4045334 -178.56038
19605100000 -8.3543978 -178.21286
19805050000 -8.3305149 -179.73746
20005000000 -8.0800638 179.97308
20204950000 -8.0760803 179.88969
20404900000 -8.0789194 179.03378
20604850000 -7.9101782 177.72426
20804800000 -7.6631732 177.67017
21004750000 -7.7889943 178.18452
21204700000 -7.8022499 176.00775
21404650000 -7.5442791 175.15318
21604600000 -7.3731127 175.56409
21804550000 -7.5599017 175.28052
22004500000 -7.4378819 173.51027
22204450000 -7.235867 172.89488
22404400000 -7.2143369 173.34261
22604350000 -7.2195177 171.61687
22804300000 -7.0722547 171.09782
23004250000 -6.912921 170.39804
23204200000 -6.9816675 170.41496
23404150000 -6.8397317 168.59758
23604100000 -6.6951618 168.51414
23804050000 -6.6993079 168.28001
24004000000 -6.6498928 167.10329
24203950000 -6.5184283 165.86996
24403900000 -6.3618565 166.17021
24603850000 -6.5015397 165.50658
24803800000 -6.2927527 163.81232
25003750000 -6.2270575 163.50916
25203700000 -6.1292081 163.62978
25403650000 -6.213819 162.53732
25603600000 -6.0582442 161.13515
25803550000 -5.9296341 160.8432
26003500000 -5.9627852 160.35844
26203450000 -5.8452973 159.19403
26403400000 -5.8122215 158.37193
26603350000 -5.6917291 158.08495
26803300000 -5.7830372 156.81763
27003250000 -5.537972 155.99684
27203200000 -5.5670362 155.8744
27403150000 -5.5252342 154.71593
27603100000 -5.442564 153.88304
27803050000 -5.3264823 153.17137
28003000000 -5.2783604 153.32574
28202950000 -5.2996092 151.49179
28402900000 -5.1218109 151.14337
28602850000 -5.1073074 150.26826
28802800000 -5.0940428 149.8978
29002750000 -5.0325437 148.09679
29202700000 -4.9449501 147.92918
29402650000 -4.9016504 147.63849
29602600000 -4.9248924 146.25058
29802550000 -4.8129773 145.81319
30002500000 -4.8009086 144.51027
30202450000 -4.7370343 144.21158
30402400000 -4.6664839 142.80984
30602350000 -4.6118307 142.62718
30802300000 -4.6089244 141.67253
31002250000 -4.5206699 140.1425
31202200000 -4.4217858 140.51215
31402150000 -4.3924837 139.4399
31602100000 -4.4701047 139.14252
31802050000 -4.3315949 136.98836
32002000000 -4.23873 137.62941
32201950000 -4.2403126 136.33803
32401900000 -4.2724056 135.18504
32601850000 -4.1429443 134.33095
32801800000 -4.1054964 133.83913
33001750000 -4.1839113 133.19423
33201700000 -4.026176 131.83972
33401650000 -4.0787783 131.44449
33601600000 -3.9147208 130.5251
33801550000 -4.0358477 129.71533
34001500000 -3.8330436 129.08293
34201450000 -3.8830166 128.15791
34401400000 -3.8146436 127.52419
34601350000 -3.7529049 126.3236
34801300000 -3.7612398 126.72417
35001250000 -3.7002745 124.93778
35201200000 -3.7065988 124.17022
35401150000 -3.4394834 123.66472
35601100000 -3.5932961 123.29985
35801050000 -3.5564768 122.56455
36001000000 -3.5193222 120.44268
36200950000 -3.4281373 120.75452
36400900000 -3.4398258 119.44015
36600850000 -3.4633176 118.64286
36800800000 -3.3432181 117.51514
37000750000 -3.3444726 116.58361
37200700000 -3.2918847 115.9634
37400650000 -3.2293751 114.88696
37600600000 -3.228301 114.80865
37800550000 -3.210284 113.21709
38000500000 -3.2539308 112.36811
38200450000 -3.0967038 112.05864
38400400000 -3.2053607 110.88613
38600350000 -3.0198088 110.44716
38800300000 -3.0865331 109.10297
39000250000 -3.0253046 109.21613
39200200000 -3.0498919 107.84454
39400150000 -3.0446801 107.35783
39600100000 -2.852874 106.19621
39800050000 -2.9232326 105.74875
40000000000 -2.8960094 104.10071
