!Agilent Technologies,N5227A,US51270434,A.10.00.00
!Agilent N5227A: A.10.00.00
!Date: Monday, January 26, 2026 17:34:52
!Correction: S11(Full 1 Port(1)) 
!S1P File: Measurement: S11:
# Hz S  dB   R 50
10000000 -13.548688 -178.0327
209950000 -13.647155 -178.04599
409900000 -13.579707 -176.10846
609850000 -13.529827 -174.32852
809800000 -13.443851 -172.31628
1009750000 -13.357481 -170.74983
1209700000 -13.18005 -169.22533
1409650000 -13.035728 -167.45593
1609600000 -12.889277 -166.28119
1809550000 -12.711022 -164.88058
2009500000 -12.500216 -163.76686
2209450000 -12.308966 -162.30577
2409400000 -12.138857 -161.75606
2609350000 -11.882743 -160.76677
2809300000 -11.676285 -159.88184
3009250000 -11.476419 -159.16255
3209200000 -11.264216 -158.8127
3409150000 -11.005815 -158.39557
3609100000 -10.817759 -157.62134
3809050000 -10.60563 -157.83609
4009000000 -10.369687 -157.37582
4208950000 -10.159842 -157.44414
4408900000 -9.9704113 -157.13713
4608850000 -9.7617416 -157.5399
4808800000 -9.5132713 -157.15118
5008750000 -9.3736763 -157.26297
5208700000 -9.1596556 -157.73019
5408650000 -8.9461622 -157.80208
5608600000 -8.7351971 -157.99373
5808550000 -8.6177835 -158.14398
6008500000 -8.3967638 -158.95967
6208450000 -8.2203598 -158.90367
6408400000 -8.0603428 -159.464
6608350000 -7.922235 -159.89507
6808300000 -7.7235656 -160.59431
7008250000 -7.5525165 -160.70401
7208200000 -7.4432683 -161.43597
7408150000 -7.2380266 -162.02361
7608100000 -7.1165233 -162.43985
7808050000 -6.9483981 -163.08058
8008000000 -6.8481565 -163.70995
8207950000 -6.6399035 -164.33043
8407900000 -6.5548124 -164.67323
8607850000 -6.422946 -165.63841
8807800000 -6.269887 -166.25531
9007750000 -6.1279988 -166.77498
9207700000 -6.025526 -167.41934
9407650000 -5.9247489 -168.45808
9607600000 -5.7582698 -168.97606
9807550000 -5.6735744 -169.68518
10007500000 -5.5735059 -170.51225
10207450000 -5.4670992 -171.49338
10407400000 -5.3314176 -171.94327
10607350000 -5.271204 -172.81938
10807300000 -5.1460094 -173.76576
11007250000 -5.0403709 -174.21892
11207200000 -4.9625678 -175.13063
11407150000 -4.8826103 -176.03465
11607100000 -4.7396169 -176.9675
11807050000 -4.6529074 -177.31718
12007000000 -4.601161 -178.4101
12206950000 -4.514483 -179.20018
12406900000 -4.3908267 179.94542
12606850000 -4.3604774 179.29472
12806800000 -4.2962251 178.23888
13006750000 -4.173974 177.37679
13206700000 -4.0952072 176.74953
13406650000 -4.054872 175.63699
13606600000 -4.003818 174.81142
13806550000 -3.8935375 174.028
14006500000 -3.8691738 173.22285
14206450000 -3.799103 172.13739
14406400000 -3.7039626 171.45062
14606350000 -3.6840613 170.6946
14806300000 -3.6371284 169.47075
15006250000 -3.5439248 168.6133
15206200000 -3.4307957 168.08687
15406150000 -3.4827056 167.2267
15606100000 -3.4075978 165.93806
15806050000 -3.3090031 165.22952
16006000000 -3.2466674 164.56621
16205950000 -3.2863076 163.61267
16405900000 -3.1746509 162.55606
16605850000 -3.1122882 162.01302
16805800000 -3.1531503 160.99152
17005750000 -3.0623894 160.00462
17205700000 -2.9667437 159.28151
17405650000 -2.9656022 158.71848
17605600000 -3.0351088 157.45193
17805550000 -2.9151006 156.49007
18005500000 -2.8592973 155.9328
18205450000 -2.9064274 155.13556
18405400000 -2.8704021 153.94902
18605350000 -2.7462831 153.11661
18805300000 -2.7535915 152.76942
19005250000 -2.7986825 151.50334
19205200000 -2.6878481 150.53821
19405150000 -2.6369121 149.8038
19605100000 -2.6822298 149.28114
19805050000 -2.6234274 147.96391
20005000000 -2.5374596 147.39886
20204950000 -2.5929945 146.67639
20404900000 -2.5861759 145.67174
20604850000 -2.4851298 144.48509
20804800000 -2.4277189 144.03508
21004750000 -2.5734637 143.4313
21204700000 -2.5061467 141.89639
21404650000 -2.417942 141.06587
21604600000 -2.4176784 140.93306
21804550000 -2.5379975 139.77594
22004500000 -2.4438076 138.62056
22204450000 -2.4070888 138.02673
22404400000 -2.4722548 137.71655
22604350000 -2.4230294 136.15657
22804300000 -2.4028449 135.54074
23004250000 -2.359128 135.02213
23204200000 -2.4374096 134.19713
23404150000 -2.3283019 132.83168
23604100000 -2.3528507 132.54678
23804050000 -2.4006541 131.95493
24004000000 -2.3715813 130.70872
24203950000 -2.3275886 129.8007
24403900000 -2.3266919 129.75989
24603850000 -2.4266732 128.59331
24803800000 -2.2994111 127.49365
25003750000 -2.3464622 127.0069
25203700000 -2.3535268 126.74135
25403650000 -2.4008403 125.41864
25603600000 -2.328495 124.57708
25803550000 -2.3106434 124.22754
26003500000 -2.3632762 123.26604
26203450000 -2.3293185 122.36202
26403400000 -2.3403902 121.59325
26603350000 -2.3224635 121.18057
26803300000 -2.3878617 119.58382
27003250000 -2.2946231 119.45171
27203200000 -2.3827717 118.87826
27403150000 -2.3657711 117.82185
27603100000 -2.3645737 117.15186
27803050000 -2.3329902 116.75578
28003000000 -2.378386 116.50289
28202950000 -2.3681586 114.89928
28402900000 -2.338918 114.68833
28602850000 -2.3445926 113.82656
28802800000 -2.4014454 113.08533
29002750000 -2.3398285 111.86954
29202700000 -2.3779571 111.80251
29402650000 -2.4138639 111.24879
29602600000 -2.4331932 109.97493
29802550000 -2.428606 109.68535
30002500000 -2.4168911 108.60795
30202450000 -2.446564 108.2595
30402400000 -2.4077957 107.27867
30602350000 -2.4430389 107.0431
30802300000 -2.4465857 106.11719
31002250000 -2.389688 105.13936
31202200000 -2.4352047 105.39267
31402150000 -2.4303851 104.46482
31602100000 -2.5481312 103.76128
31802050000 -2.4096036 102.53134
32002000000 -2.4665358 102.99772
32201950000 -2.4912541 101.83602
32401900000 -2.5094633 100.73405
32601850000 -2.472827 100.34016
32801800000 -2.5109653 99.705345
33001750000 -2.5746212 98.950478
33201700000 -2.4692848 98.319321
33401650000 -2.5442584 97.687897
33601600000 -2.4937241 97.340355
33801550000 -2.5702288 96.172646
34001500000 -2.4711726 96.295662
34201450000 -2.5507119 95.204124
34401400000 -2.5536773 94.7547
34601350000 -2.4856641 94.027954
34801300000 -2.5941927 94.094238
35001250000 -2.5307326 92.699959
35201200000 -2.5759363 91.982758
35401150000 -2.4282148 92.293953
35601100000 -2.5676143 91.359863
35801050000 -2.6193056 90.802948
36001000000 -2.5060682 89.323021
36200950000 -2.5469756 89.538704
36400900000 -2.558748 88.486046
36600850000 -2.6035709 87.853043
36800800000 -2.5393 87.104683
37000750000 -2.5631452 86.27507
37200700000 -2.5517333 85.940331
37400650000 -2.495985 85.139633
37600600000 -2.5933237 85.034676
37800550000 -2.5411289 83.894066
38000500000 -2.6113911 83.052574
38200450000 -2.5117633 83.219055
38400400000 -2.6479397 81.940369
38600350000 -2.5516913 82.070999
38800300000 -2.5665214 80.753044
39000250000 -2.5912204 80.752075
39200200000 -2.6194797 79.697807
39400150000 -2.6373236 79.18705
39600100000 -2.50425 78.657799
39800050000 -2.6026247 77.829628
40000000000 -2.5704851 76.949059
