!Agilent Technologies,N5227A,US51270434,A.10.00.00
!Agilent N5227A: A.10.00.00
!Date: Thursday, February 26, 2026 12:52:25
!Correction: S11(Full 1 Port(1)) 
!S1P File: Measurement: S11:
# Hz S  dB   R 50
10000000 -19.610847 -177.20311
259950000 -19.636427 -177.50763
509900000 -19.380617 -176.03026
759850000 -19.107851 -174.80089
1009800000 -19.006083 -174.94864
1259750000 -18.790451 -175.09413
1509700000 -18.692682 -174.9558
1759650000 -18.635845 -175.34962
2009600000 -18.448395 -175.25996
2259550000 -18.465065 -175.27199
2509500000 -18.368477 -175.89143
2759450000 -18.321375 -175.50652
3009400000 -18.354881 -175.46565
3259350000 -18.260378 -175.69557
3509300000 -18.201731 -175.14606
3759250000 -18.198814 -175.29759
4009200000 -18.052717 -175.36946
4259150000 -18.023205 -175.0376
4509100000 -17.988951 -175.49429
4759050000 -17.929153 -175.04564
5009000000 -17.919268 -175.06419
5258950000 -17.818821 -175.57399
5508900000 -17.765862 -174.92812
5758850000 -17.792486 -175.2021
6008800000 -17.673668 -175.71046
6258750000 -17.609699 -175.09267
6508700000 -17.63106 -175.85098
6758650000 -17.541183 -175.62387
7008600000 -17.535397 -175.1925
7258550000 -17.513721 -175.66835
7508500000 -17.396812 -175.29185
7758450000 -17.386902 -175.29216
8008400000 -17.314697 -175.53836
8258350000 -17.28895 -174.87624
8508300000 -17.299095 -174.92395
8758250000 -17.166916 -174.88844
9008200000 -17.092651 -174.02515
9258150000 -17.076328 -175.12907
9508100000 -16.953983 -175.06996
9758050000 -16.973076 -174.95166
10008000000 -16.958185 -175.16153
10257950000 -16.816023 -174.71169
10507900000 -16.745331 -174.71252
10757850000 -16.591969 -175.01955
11007800000 -16.533031 -175.09709
11257750000 -16.535599 -176.32146
11507700000 -16.444038 -175.76247
11757650000 -16.36998 -175.07593
12007600000 -16.318253 -176.07648
12257550000 -16.164476 -175.79596
12507500000 -16.160603 -176.20314
12757450000 -16.194206 -177.06694
13007400000 -16.13625 -176.59149
13257350000 -16.102549 -176.50337
13507300000 -16.010817 -176.44426
13757250000 -15.886782 -176.73509
14007200000 -15.833097 -177.78389
14257150000 -15.773366 -177.22487
14507100000 -15.797644 -177.27231
14757050000 -15.706656 -178.02139
15007000000 -15.487612 -177.3689
15256950000 -15.452615 -177.54562
15506900000 -15.356525 -178.45415
15756850000 -15.208806 -178.32573
16006800000 -15.204092 -179.03493
16256750000 -15.019419 -178.96278
16506700000 -15.013363 -178.89098
16756650000 -15.013431 179.96748
17006600000 -14.75371 179.90373
17256550000 -14.83536 -179.52209
17506500000 -14.790731 179.02061
17756450000 -14.527887 179.26266
18006400000 -14.5741 178.91556
18256350000 -14.483389 177.77023
18506300000 -14.33844 177.94531
18756250000 -14.43456 177.63235
19006200000 -14.269865 177.18512
19256150000 -14.215292 177.41005
19506100000 -14.166779 176.86389
19756050000 -13.957853 176.91943
20006000000 -14.039002 177.28809
20255950000 -13.95504 175.87529
20505900000 -13.653458 176.32222
20755850000 -13.754992 176.51645
21005800000 -13.720269 174.67078
21255750000 -13.525598 174.74754
21505700000 -13.633866 175.02835
21755650000 -13.404549 174.2841
22005600000 -13.272617 174.52994
22255550000 -13.118629 173.62549
22505500000 -12.879412 172.49025
22755450000 -12.87197 172.02425
23005400000 -12.875895 170.37148
23255350000 -12.710588 170.72968
23505300000 -12.879059 171.0248
23755250000 -12.683008 169.71555
24005200000 -12.424755 170.40327
24255150000 -12.565163 170.03484
24505100000 -12.392906 167.9729
24755050000 -12.313676 167.87299
25005000000 -12.386834 167.68166
25254950000 -12.297522 166.88159
25504900000 -12.327504 166.89009
25754850000 -12.164777 166.02527
26004800000 -12.004712 166.37823
26254750000 -12.036088 166.96167
26504700000 -11.851001 164.39456
26754650000 -11.531034 165.50737
27004600000 -11.584785 165.18338
27254550000 -11.499846 162.75482
27504500000 -11.244695 163.14108
27754450000 -11.509242 163.22757
28004400000 -11.218279 162.295
28254350000 -11.06426 162.62814
28504300000 -11.052703 161.93982
28754250000 -10.821602 159.81781
29004200000 -10.82133 159.41637
29254150000 -10.841945 157.53638
29504100000 -10.742726 157.36371
29754050000 -10.947603 157.05919
30004000000 -10.69633 155.47005
30253950000 -10.432633 156.49583
30503900000 -10.581194 156.31485
30753850000 -10.431131 153.44638
31003800000 -10.276011 154.21944
31253750000 -10.472764 155.69644
31503700000 -10.407813 153.52904
31753650000 -10.173196 153.70743
32003600000 -10.099222 154.13132
32253550000 -10.026093 153.04053
32503500000 -10.031845 152.07545
32753450000 -9.8931541 151.42847
33003400000 -9.7607899 151.48433
33253350000 -9.6922083 150.30641
33503300000 -9.4502115 148.99548
33753250000 -9.362319 149.95537
34003200000 -9.3444767 148.89305
34253150000 -9.0206614 147.04501
34503100000 -8.6621943 147.75415
34753050000 -8.8448973 146.11646
35003000000 -8.6605091 143.66328
35252950000 -8.6133146 143.32468
35502900000 -8.5820265 143.1665
35752850000 -8.7431917 142.60928
36002800000 -8.5668707 140.68411
36252750000 -8.4372721 138.85344
36502700000 -8.6648865 139.17502
36752650000 -8.7838736 138.21375
37002600000 -8.5954962 137.92612
37252550000 -8.3356647 138.19926
37502500000 -8.2037334 136.49017
37752450000 -8.1007967 134.70778
38002400000 -8.1277895 133.7585
38252350000 -8.2869625 133.34946
38502300000 -8.1755199 135.17062
38752250000 -7.8031659 136.39552
39002200000 -7.5201397 133.97125
39252150000 -7.4779305 132.01514
39502100000 -7.4261003 130.20229
39752050000 -7.5766697 129.70712
40002000000 -7.5029631 130.3447
40251950000 -7.3505015 129.01271
40501900000 -7.0443535 127.90751
40751850000 -7.0447578 126.03178
41001800000 -7.1646638 124.45247
41251750000 -7.1055708 123.48927
41501700000 -7.0808001 124.19251
41751650000 -6.8647881 123.205
42001600000 -6.601028 122.08813
42251550000 -6.4324017 119.7929
42501500000 -6.7811737 117.92196
42751450000 -6.8116674 118.68468
43001400000 -6.7620945 119.3382
43251350000 -6.5147572 119.36279
43501300000 -6.303236 116.7448
43751250000 -6.2721133 114.08741
44001200000 -6.5294805 113.58709
44251150000 -6.7258735 115.16426
44501100000 -6.4387336 115.2223
44751050000 -6.0051694 114.86731
45001000000 -5.5417681 112.93617
45250950000 -5.7561178 109.07233
45500900000 -5.8725705 108.57255
45750850000 -6.2282681 107.18335
46000800000 -5.9023461 112.06869
46250750000 -5.250843 112.50731
46500700000 -4.8416686 107.66013
46750650000 -4.7367187 101.55947
47000600000 -5.6425414 101.30239
47250550000 -6.0167432 103.94143
47500500000 -5.4811473 108.06258
47750450000 -4.6414971 103.65242
48000400000 -4.6378183 99.006241
48250350000 -4.7834678 95.325821
48500300000 -5.8316746 94.403923
48750250000 -5.8057294 98.541733
49000200000 -5.2302008 102.16212
49250150000 -3.8199263 98.792877
49500100000 -3.6345503 90.118248
49750050000 -4.5032067 85.780724
50000000000 -6.2778063 76.888977
