!Agilent Technologies,N5227A,US51270434,A.10.00.00
!Agilent N5227A: A.10.00.00
!Date: Thursday, February 26, 2026 12:52:43
!Correction: S11(Full 1 Port(1)) 
!S1P File: Measurement: S11:
# Hz S  dB   R 50
10000000 -21.823393 -175.00146
259950000 -22.062273 -176.92792
509900000 -21.719704 -174.88622
759850000 -21.406282 -173.30934
1009800000 -21.310511 -172.93672
1259750000 -21.025219 -173.03865
1509700000 -20.884443 -172.5627
1759650000 -20.786125 -172.68103
2009600000 -20.523468 -172.53639
2259550000 -20.57126 -172.28386
2509500000 -20.431116 -172.99699
2759450000 -20.357216 -172.34468
3009400000 -20.3876 -172.09674
3259350000 -20.275951 -172.2507
3509300000 -20.174185 -171.28725
3759250000 -20.17091 -171.31726
4009200000 -19.971369 -171.25256
4259150000 -19.936264 -170.67404
4509100000 -19.883686 -171.01248
4759050000 -19.76792 -170.39301
5009000000 -19.770168 -170.27817
5258950000 -19.635162 -170.65494
5508900000 -19.543756 -169.76134
5758850000 -19.573145 -169.95161
6008800000 -19.406677 -170.45802
6258750000 -19.339996 -169.41399
6508700000 -19.350374 -170.11487
6758650000 -19.241104 -169.69986
7008600000 -19.197979 -169.03636
7258550000 -19.178852 -169.41832
7508500000 -19.022152 -168.97066
7758450000 -18.97629 -168.7991
8008400000 -18.902485 -168.98659
8258350000 -18.822689 -168.05411
8508300000 -18.81406 -167.93277
8758250000 -18.633469 -167.882
9008200000 -18.519962 -166.83482
9258150000 -18.47649 -167.86404
9508100000 -18.336075 -167.92607
9758050000 -18.324308 -167.53592
10008000000 -18.330122 -167.76439
10257950000 -18.141088 -167.36223
10507900000 -18.014534 -167.21252
10757850000 -17.848293 -167.49545
11007800000 -17.761929 -167.55818
11257750000 -17.737591 -168.82318
11507700000 -17.614378 -168.2359
11757650000 -17.5152 -167.33775
12007600000 -17.471413 -168.52354
12257550000 -17.259541 -168.22424
12507500000 -17.239855 -168.48756
12757450000 -17.29096 -169.33255
13007400000 -17.178675 -168.78683
13257350000 -17.135277 -168.65623
13507300000 -17.016617 -168.51738
13757250000 -16.854475 -168.88177
14007200000 -16.796532 -169.95787
14257150000 -16.691097 -169.3972
14507100000 -16.723944 -169.23726
14757050000 -16.606022 -170.18655
15007000000 -16.348381 -169.49901
15256950000 -16.289688 -169.80908
15506900000 -16.171921 -170.7327
15756850000 -15.982899 -170.69907
16006800000 -15.999768 -171.37564
16256750000 -15.752447 -171.45996
16506700000 -15.727098 -171.3428
16756650000 -15.746781 -172.44226
17006600000 -15.453 -172.735
17256550000 -15.507835 -172.04933
17506500000 -15.457026 -173.55168
17756450000 -15.153387 -173.50922
18006400000 -15.193235 -173.69791
18256350000 -15.101011 -175.06599
18506300000 -14.940753 -174.93341
18756250000 -15.021854 -175.14384
19006200000 -14.838148 -175.69951
19256150000 -14.745861 -175.35094
19506100000 -14.69627 -176.05205
19756050000 -14.465006 -176.03204
20006000000 -14.509945 -175.67741
20255950000 -14.456455 -177.18336
20505900000 -14.096913 -176.7773
20755850000 -14.188912 -176.51669
21005800000 -14.173453 -178.50589
21255750000 -13.941069 -178.61218
21505700000 -14.043616 -178.11758
21755650000 -13.811712 -179.09143
22005600000 -13.634998 -178.9218
22255550000 -13.483201 179.95538
22505500000 -13.243756 178.7002
22755450000 -13.23086 178.18765
23005400000 -13.23209 176.48666
23255350000 -13.063162 176.78513
23505300000 -13.217441 177.27245
23755250000 -13.00786 175.81604
24005200000 -12.726216 176.27037
24255150000 -12.859695 176.03976
24505100000 -12.687426 173.69603
24755050000 -12.623982 173.73647
25005000000 -12.67375 173.51582
25254950000 -12.59827 172.64946
25504900000 -12.600272 172.7381
25754850000 -12.415148 171.69441
26004800000 -12.265102 171.92996
26254750000 -12.261385 172.69391
26504700000 -12.066015 169.81639
26754650000 -11.746054 170.90334
27004600000 -11.783142 170.4649
27254550000 -11.733727 168.06512
27504500000 -11.429517 168.27472
27754450000 -11.702514 168.49223
28004400000 -11.411931 167.77113
28254350000 -11.238616 167.61101
28504300000 -11.208274 166.88747
28754250000 -10.984648 164.62267
29004200000 -10.979577 164.22758
29254150000 -11.048597 162.31924
29504100000 -10.902078 162.05338
29754050000 -11.115301 161.87357
30004000000 -10.903637 160.29454
30253950000 -10.572865 160.98106
30503900000 -10.731452 160.8766
30753850000 -10.585725 157.87862
31003800000 -10.427613 158.61667
31253750000 -10.608842 159.96678
31503700000 -10.508094 157.99535
31753650000 -10.315908 158.01895
32003600000 -10.233579 158.58437
32253550000 -10.172944 157.23923
32503500000 -10.14001 156.36705
32753450000 -9.979393 155.66531
33003400000 -9.8564825 155.44853
33253350000 -9.7930298 154.55583
33503300000 -9.5647659 152.74873
33753250000 -9.4685974 153.80336
34003200000 -9.4808664 152.63167
34253150000 -9.1309576 150.69832
34503100000 -8.728179 151.30469
34753050000 -8.9762144 149.71143
35003000000 -8.7952881 147.17082
35252950000 -8.6906519 146.54019
35502900000 -8.6913137 147.12823
35752850000 -8.8422384 145.97949
36002800000 -8.6637688 144.01398
36252750000 -8.5201731 142.17773
36502700000 -8.8189945 142.3877
36752650000 -8.8721056 141.57303
37002600000 -8.7022648 141.24574
37252550000 -8.4366207 141.37495
37502500000 -8.2821112 139.54723
37752450000 -8.2272921 138.0114
38002400000 -8.2607822 137.0164
38252350000 -8.4022942 136.36394
38502300000 -8.2638254 138.06538
38752250000 -7.8422151 139.36914
39002200000 -7.6483579 136.93106
39252150000 -7.5322523 134.90262
39502100000 -7.5181251 132.64142
39752050000 -7.667696 132.5179
40002000000 -7.5785799 133.36407
40251950000 -7.3990073 131.61888
40501900000 -7.1072469 130.56715
40751850000 -7.1206083 128.84222
41001800000 -7.2381477 126.82658
41251750000 -7.2156382 126.0871
41501700000 -7.1542845 126.80743
41751650000 -6.9064612 125.43523
42001600000 -6.6802697 124.48119
42251550000 -6.5065241 121.97714
42501500000 -6.8589106 120.28944
42751450000 -6.8656569 121.01112
43001400000 -6.8576951 122.02047
43251350000 -6.5747285 121.66418
43501300000 -6.3400879 119.15382
43751250000 -6.3526335 116.55131
44001200000 -6.6061378 115.65309
44251150000 -6.7830338 117.43526
44501100000 -6.4964237 117.49638
44751050000 -6.0610948 117.21782
45001000000 -5.6210141 114.87244
45250950000 -5.8831854 110.98179
45500900000 -5.9778767 110.74103
45750850000 -6.3728361 109.33483
46000800000 -5.9266748 114.52284
46250750000 -5.3455191 114.36501
46500700000 -4.9682503 109.59418
46750650000 -4.821867 103.33529
47000600000 -5.7280746 103.48537
47250550000 -6.0785079 105.97714
47500500000 -5.4980297 109.96108
47750450000 -4.6699538 105.25204
48000400000 -4.6955013 100.6958
48250350000 -4.8700209 96.742081
48500300000 -5.9624949 96.221626
48750250000 -5.8569016 100.47154
49000200000 -5.2590485 103.79723
49250150000 -3.8429236 100.43406
49500100000 -3.7134979 91.614136
49750050000 -4.6031208 87.393646
50000000000 -6.4369063 78.895248
