!Agilent Technologies,N5227A,US51270434,A.10.00.00
!Agilent N5227A: A.10.00.00
!Date: Thursday, February 26, 2026 12:51:15
!Correction: S11(Full 1 Port(1)) 
!S1P File: Measurement: S11:
# Hz S  dB   R 50
10000000 -17.405748 -178.44112
259950000 -17.332603 -177.16029
509900000 -17.029858 -175.64473
759850000 -16.740997 -174.76608
1009800000 -16.576385 -174.98151
1259750000 -16.36039 -175.28491
1509700000 -16.249517 -175.35103
1759650000 -16.161331 -175.95866
2009600000 -16.024471 -176.14346
2259550000 -16.005013 -176.40945
2509500000 -15.922365 -177.15115
2759450000 -15.866022 -177.10771
3009400000 -15.889842 -177.30142
3259350000 -15.806575 -177.73505
3509300000 -15.754274 -177.50159
3759250000 -15.748549 -177.99718
4009200000 -15.649096 -178.16234
4259150000 -15.628369 -178.21783
4509100000 -15.589181 -178.71619
4759050000 -15.541248 -178.66269
5009000000 -15.54936 -178.95563
5258950000 -15.474013 -179.46693
5508900000 -15.435723 -179.24113
5758850000 -15.447499 -179.687
6008800000 -15.364835 179.7431
6258750000 -15.332703 -179.9666
6508700000 -15.360786 179.16281
6758650000 -15.295912 179.17783
7008600000 -15.302467 179.26804
7258550000 -15.29021 178.73126
7508500000 -15.219163 178.83925
7758450000 -15.212169 178.56917
8008400000 -15.169743 178.28426
8258350000 -15.168622 178.58331
8508300000 -15.175163 178.35448
8758250000 -15.088616 178.15611
9008200000 -15.046396 178.78307
9258150000 -15.021648 177.70421
9508100000 -14.940952 177.59769
9758050000 -14.97637 177.54338
10008000000 -14.958411 177.15384
10257950000 -14.884427 177.36105
10507900000 -14.827765 177.13515
10757850000 -14.733013 176.96521
11007800000 -14.694196 176.79135
11257750000 -14.688787 175.70624
11507700000 -14.621547 175.98735
11757650000 -14.595243 176.44504
12007600000 -14.555345 175.47676
12257550000 -14.447508 175.62709
12507500000 -14.46499 175.21725
12757450000 -14.481814 174.34634
13007400000 -14.458131 174.65063
13257350000 -14.450397 174.55672
13507300000 -14.403859 174.48991
13757250000 -14.31154 174.20912
14007200000 -14.25168 173.20366
14257150000 -14.224995 173.60126
14507100000 -14.272937 173.47841
14757050000 -14.194175 172.77759
15007000000 -14.051678 173.43059
15256950000 -14.02525 173.08945
15506900000 -13.931233 172.32454
15756850000 -13.835152 172.39297
16006800000 -13.842116 171.65442
16256750000 -13.677862 171.74432
16506700000 -13.716104 171.6468
16756650000 -13.723916 170.65121
17006600000 -13.520014 170.71126
17256550000 -13.597273 170.97453
17506500000 -13.565158 169.698
17756450000 -13.353387 169.93965
18006400000 -13.40641 169.67226
18256350000 -13.304957 168.59256
18506300000 -13.2141 168.76814
18756250000 -13.310717 168.26779
19006200000 -13.172755 167.9332
19256150000 -13.152641 168.15323
19506100000 -13.121806 167.63683
19756050000 -12.939389 167.64488
20006000000 -13.036318 167.8459
20255950000 -12.966489 166.65341
20505900000 -12.724504 167.21901
20755850000 -12.838092 167.15698
21005800000 -12.783372 165.43402
21255750000 -12.618611 165.61897
21505700000 -12.754324 165.58456
21755650000 -12.551256 165.14101
22005600000 -12.444895 165.4189
22255550000 -12.313813 164.62378
22505500000 -12.088954 163.70917
22755450000 -12.089134 163.33498
23005400000 -12.06358 161.70331
23255350000 -11.938842 162.00658
23505300000 -12.142653 162.12109
23755250000 -11.940463 161.0909
24005200000 -11.748304 161.74532
24255150000 -11.888358 161.36096
24505100000 -11.684587 159.37753
24755050000 -11.660741 159.47534
25005000000 -11.720113 159.1524
25254950000 -11.647777 158.35629
25504900000 -11.697715 158.38615
25754850000 -11.509406 157.55103
26004800000 -11.445141 157.99275
26254750000 -11.452985 158.42751
26504700000 -11.236243 156.0248
26754650000 -10.978805 157.67401
27004600000 -11.040507 157.08276
27254550000 -10.941667 154.83112
27504500000 -10.719282 155.27917
27754450000 -11.036907 155.1877
28004400000 -10.733435 154.46341
28254350000 -10.603245 154.74629
28504300000 -10.588335 154.04756
28754250000 -10.342196 152.22093
29004200000 -10.363165 151.72256
29254150000 -10.359892 149.90851
29504100000 -10.284689 149.82298
29754050000 -10.478247 149.41325
30004000000 -10.266677 148.1407
30253950000 -10.002557 149.04149
30503900000 -10.160142 148.88066
30753850000 -9.9758377 146.2041
31003800000 -9.8903465 146.83136
31253750000 -10.11618 148.30222
31503700000 -10.018457 146.27373
31753650000 -9.8298244 146.5847
32003600000 -9.788353 147.15294
32253550000 -9.68612 146.01085
32503500000 -9.7011194 145.03851
32753450000 -9.5281544 144.49442
33003400000 -9.4834108 144.39795
33253350000 -9.3712721 143.62518
33503300000 -9.1536846 142.33151
33753250000 -9.1024523 143.39073
34003200000 -9.0507565 142.45515
34253150000 -8.728056 140.71902
34503100000 -8.4137774 141.60724
34753050000 -8.5801058 140.04341
35003000000 -8.3860321 137.55678
35252950000 -8.3148947 137.22801
35502900000 -8.3642635 137.22812
35752850000 -8.4826622 136.20967
36002800000 -8.3274584 134.8669
36252750000 -8.1483984 132.98462
36502700000 -8.422226 133.04671
36752650000 -8.5048504 132.20125
37002600000 -8.3530569 132.017
37252550000 -8.1450729 132.39925
37502500000 -7.987731 130.96548
37752450000 -7.8902097 129.30663
38002400000 -7.9184203 128.45181
38252350000 -8.0653753 127.76925
38502300000 -8.0239944 129.04683
38752250000 -7.5717716 130.9127
39002200000 -7.3322105 128.77744
39252150000 -7.3062429 126.67429
39502100000 -7.2475095 124.69618
39752050000 -7.4432464 124.24341
40002000000 -7.3593221 125.31008
40251950000 -7.2245502 123.78905
40501900000 -6.8955412 122.78566
40751850000 -6.8848109 121.18846
41001800000 -6.9698138 119.35464
41251750000 -6.935359 118.38244
41501700000 -6.9107451 119.28845
41751650000 -6.6760907 118.29646
42001600000 -6.4498472 117.44543
42251550000 -6.2689395 115.12303
42501500000 -6.5948591 113.39865
42751450000 -6.6668644 113.969
43001400000 -6.6541348 114.84478
43251350000 -6.3867598 114.73602
43501300000 -6.1660142 112.5685
43751250000 -6.1120391 109.72221
44001200000 -6.3660989 108.90906
44251150000 -6.599421 110.26191
44501100000 -6.3215947 110.60896
44751050000 -5.9343972 110.74033
45001000000 -5.4540434 108.71664
45250950000 -5.6493745 105.07272
45500900000 -5.7428908 104.46893
45750850000 -6.1203074 102.99187
46000800000 -5.8412762 108.46539
46250750000 -5.2881317 108.56645
46500700000 -4.7954407 104.01392
46750650000 -4.6194897 98.142334
47000600000 -5.5097985 97.710136
47250550000 -5.9230318 99.562378
47500500000 -5.414073 103.87992
47750450000 -4.5996914 100.04211
48000400000 -4.564755 95.729935
48250350000 -4.668889 91.810333
48500300000 -5.702333 90.408363
48750250000 -5.7050347 94.57341
49000200000 -5.220202 98.479843
49250150000 -3.7596753 95.520844
49500100000 -3.5501246 87.290993
49750050000 -4.3687391 82.612526
50000000000 -6.0806994 73.046272
