!Agilent Technologies,N5227A,US51270434,A.10.00.00
!Agilent N5227A: A.10.00.00
!Date: Thursday, February 26, 2026 12:50:50
!Correction: S11(Full 1 Port(1)) 
!S1P File: Measurement: S11:
# Hz S  dB   R 50
10000000 -16.891134 -177.74928
259950000 -16.728073 -176.72993
509900000 -16.357023 -175.09967
759850000 -16.046381 -174.6261
1009800000 -15.869555 -175.03058
1259750000 -15.667509 -175.50911
1509700000 -15.55601 -175.65373
1759650000 -15.485432 -176.35683
2009600000 -15.347267 -176.58623
2259550000 -15.351724 -176.92656
2509500000 -15.264129 -177.64487
2759450000 -15.21557 -177.69398
3009400000 -15.239936 -177.96922
3259350000 -15.161564 -178.39676
3509300000 -15.116184 -178.24625
3759250000 -15.114005 -178.67242
4009200000 -15.032731 -178.9485
4259150000 -15.004816 -179.05348
4509100000 -14.984036 -179.58983
4759050000 -14.9293 -179.56184
5009000000 -14.93486 -179.80797
5258950000 -14.872765 179.60825
5508900000 -14.833281 179.74063
5758850000 -14.858325 179.2673
6008800000 -14.776299 178.72656
6258750000 -14.749915 178.91054
6508700000 -14.766474 178.08186
6758650000 -14.708534 178.03073
7008600000 -14.734626 178.13011
7258550000 -14.718882 177.5072
7508500000 -14.64307 177.57193
7758450000 -14.644229 177.30498
8008400000 -14.602364 176.98357
8258350000 -14.605294 177.22676
8508300000 -14.608007 176.88084
8758250000 -14.527345 176.82631
9008200000 -14.495972 177.30815
9258150000 -14.473892 176.25563
9508100000 -14.403256 176.18513
9758050000 -14.420475 176.00061
10008000000 -14.423959 175.56525
10257950000 -14.356702 175.80472
10507900000 -14.287783 175.59909
10757850000 -14.201046 175.35863
11007800000 -14.182956 175.15569
11257750000 -14.159127 174.11699
11507700000 -14.109719 174.35526
11757650000 -14.079185 174.77968
12007600000 -14.051866 173.80701
12257550000 -13.958465 173.92668
12507500000 -13.956193 173.53073
12757450000 -13.971586 172.61099
13007400000 -13.952109 172.79167
13257350000 -13.948601 172.72939
13507300000 -13.903777 172.70599
13757250000 -13.815961 172.35738
14007200000 -13.762436 171.4586
14257150000 -13.741053 171.74854
14507100000 -13.777091 171.47591
14757050000 -13.710084 170.97786
15007000000 -13.574382 171.53777
15256950000 -13.568928 171.16336
15506900000 -13.489455 170.40056
15756850000 -13.386896 170.50232
16006800000 -13.40212 169.75433
16256750000 -13.237711 169.86563
16506700000 -13.278108 169.76831
16756650000 -13.271906 168.7052
17006600000 -13.08833 168.81766
17256550000 -13.183088 168.94711
17506500000 -13.120893 167.69887
17756450000 -12.940311 168.05745
18006400000 -12.988825 167.61176
18256350000 -12.892276 166.53548
18506300000 -12.811587 166.74644
18756250000 -12.898435 166.21893
19006200000 -12.754029 165.91144
19256150000 -12.745397 166.03146
19506100000 -12.712259 165.49861
19756050000 -12.556976 165.63971
20006000000 -12.645101 165.67162
20255950000 -12.571486 164.49695
20505900000 -12.34652 165.15579
20755850000 -12.456874 164.96333
21005800000 -12.402117 163.2856
21255750000 -12.249837 163.45761
21505700000 -12.371527 163.40439
21755650000 -12.196427 162.99425
22005600000 -12.086321 163.16069
22255550000 -11.957719 162.43947
22505500000 -11.749337 161.59317
22755450000 -11.749664 161.26617
23005400000 -11.726114 159.62636
23255350000 -11.612309 159.89876
23505300000 -11.789509 159.9324
23755250000 -11.60513 158.93379
24005200000 -11.432764 159.52756
24255150000 -11.563114 159.13766
24505100000 -11.357259 157.25648
24755050000 -11.340978 157.29822
25005000000 -11.379824 156.94016
25254950000 -11.323541 156.11385
25504900000 -11.367504 156.14241
25754850000 -11.189383 155.35184
26004800000 -11.130846 155.82237
26254750000 -11.149682 156.18901
26504700000 -10.950234 153.79453
26754650000 -10.705634 155.37856
27004600000 -10.748041 154.76761
27254550000 -10.664597 152.5752
27504500000 -10.444471 153.1483
27754450000 -10.723446 152.8494
28004400000 -10.438294 152.37114
28254350000 -10.324524 152.39645
28504300000 -10.347586 151.96214
28754250000 -10.074837 150.06631
29004200000 -10.115849 149.66772
29254150000 -10.088909 147.89795
29504100000 -10.012724 147.70123
29754050000 -10.207262 147.23253
30004000000 -10.002064 145.96461
30253950000 -9.7842798 146.96126
30503900000 -9.9288321 146.57161
30753850000 -9.7346439 144.22861
31003800000 -9.6449347 144.77565
31253750000 -9.8738585 145.68109
31503700000 -9.7784071 143.76453
31753650000 -9.5904608 144.42638
32003600000 -9.5427828 144.96786
32253550000 -9.459693 143.72623
32503500000 -9.4601641 142.80138
32753450000 -9.3176374 142.24876
33003400000 -9.2531738 142.31348
33253350000 -9.1658535 141.63835
33503300000 -8.9533224 140.14809
33753250000 -8.9217024 141.19421
34003200000 -8.8759737 140.11031
34253150000 -8.5552683 138.77164
34503100000 -8.2497721 139.59752
34753050000 -8.4379292 138.0601
35003000000 -8.1942139 135.7769
35252950000 -8.1004314 135.19896
35502900000 -8.1301565 135.16927
35752850000 -8.2979479 134.12825
36002800000 -8.1655836 132.87801
36252750000 -7.9823818 131.21237
36502700000 -8.2175865 131.04309
36752650000 -8.2802248 130.23279
37002600000 -8.1808996 129.9984
37252550000 -7.9485908 130.24248
37502500000 -7.8150206 128.90732
37752450000 -7.7373018 127.55676
38002400000 -7.7272658 126.41545
38252350000 -7.8477592 125.4929
38502300000 -7.8251715 127.17674
38752250000 -7.4550996 128.98978
39002200000 -7.252284 127.01327
39252150000 -7.1737123 124.89776
39502100000 -7.1025367 122.73357
39752050000 -7.2512088 122.18711
40002000000 -7.2188835 122.92488
40251950000 -7.0868206 121.69613
40501900000 -6.7664599 121.25033
40751850000 -6.7271876 119.32632
41001800000 -6.8188004 117.68457
41251750000 -6.7790051 116.64333
41501700000 -6.7651906 117.23138
41751650000 -6.5679522 116.47424
42001600000 -6.3347631 115.57423
42251550000 -6.1564465 113.57748
42501500000 -6.4277458 111.50353
42751450000 -6.488636 112.15425
43001400000 -6.5065708 112.6022
43251350000 -6.2775168 112.96538
43501300000 -6.0641212 110.79373
43751250000 -6.0387754 108.24628
44001200000 -6.2035112 107.21959
44251150000 -6.4631968 108.5271
44501100000 -6.2155128 108.71713
44751050000 -5.8589482 108.70484
45001000000 -5.3862743 107.25584
45250950000 -5.5381622 103.53925
45500900000 -5.6243749 102.84321
45750850000 -6.0029254 101.17793
46000800000 -5.7361369 106.26405
46250750000 -5.2463598 106.43172
46500700000 -4.7199655 102.48648
46750650000 -4.5092592 96.611526
47000600000 -5.3888445 96.309845
47250550000 -5.7827849 97.806534
47500500000 -5.3618169 102.02777
47750450000 -4.5535402 98.544701
48000400000 -4.4916234 94.355042
48250350000 -4.5936699 90.478302
48500300000 -5.5314417 88.99984
48750250000 -5.6018114 92.619865
49000200000 -5.18362 96.42041
49250150000 -3.7503467 94.200996
49500100000 -3.5197928 86.022606
49750050000 -4.2726684 81.510376
50000000000 -5.8598251 71.947014
