!Agilent Technologies,N5227A,US51270434,A.10.00.00
!Agilent N5227A: A.10.00.00
!Date: Thursday, February 26, 2026 12:52:11
!Correction: S11(Full 1 Port(1)) 
!S1P File: Measurement: S11:
# Hz S  dB   R 50
10000000 -18.252382 -178.24275
259950000 -18.238623 -177.29655
509900000 -17.966423 -175.97713
759850000 -17.688192 -174.9899
1009800000 -17.563385 -175.07376
1259750000 -17.354013 -175.28844
1509700000 -17.245001 -175.28784
1759650000 -17.175066 -175.73399
2009600000 -17.007565 -175.79141
2259550000 -17.014997 -175.90123
2509500000 -16.905767 -176.53775
2759450000 -16.858728 -176.41481
3009400000 -16.868271 -176.50272
3259350000 -16.79417 -176.8569
3509300000 -16.736151 -176.47841
3759250000 -16.723839 -176.8806
4009200000 -16.604252 -176.90001
4259150000 -16.580868 -176.85568
4509100000 -16.554659 -177.33073
4759050000 -16.473347 -177.18384
5009000000 -16.485168 -177.36523
5258950000 -16.390018 -177.85706
5508900000 -16.346163 -177.48193
5758850000 -16.369492 -177.98004
6008800000 -16.269892 -178.40314
6258750000 -16.2316 -177.95474
6508700000 -16.241489 -178.85966
6758650000 -16.173847 -178.7998
7008600000 -16.177526 -178.52982
7258550000 -16.161474 -179.08649
7508500000 -16.073965 -178.91745
7758450000 -16.057554 -179.0479
8008400000 -16.018988 -179.3343
8258350000 -15.997417 -178.84743
8508300000 -16.003008 -179.11951
8758250000 -15.891948 -179.10822
9008200000 -15.866337 -178.53085
9258150000 -15.83259 -179.57884
9508100000 -15.735893 -179.6301
9758050000 -15.761019 -179.59673
10008000000 -15.757965 179.93661
10257950000 -15.664322 -179.75764
10507900000 -15.593256 -179.83304
10757850000 -15.472172 -179.9608
11007800000 -15.428123 179.74789
11257750000 -15.418514 178.64073
11507700000 -15.353594 178.99445
11757650000 -15.304961 179.5712
12007600000 -15.280309 178.60054
12257550000 -15.143697 178.88696
12507500000 -15.149298 178.42613
12757450000 -15.180667 177.51413
13007400000 -15.138816 177.84201
13257350000 -15.12101 177.85912
13507300000 -15.055551 177.86012
13757250000 -14.964108 177.58224
14007200000 -14.902231 176.49471
14257150000 -14.858671 176.9864
14507100000 -14.901896 176.91548
14757050000 -14.829584 176.21271
15007000000 -14.661637 176.84003
15256950000 -14.628265 176.61676
15506900000 -14.529254 175.71535
15756850000 -14.414046 175.91223
16006800000 -14.427419 175.14555
16256750000 -14.238016 175.29108
16506700000 -14.271358 175.20935
16756650000 -14.273182 174.12668
17006600000 -14.047304 174.20557
17256550000 -14.139105 174.52817
17506500000 -14.095099 173.21687
17756450000 -13.866913 173.49117
18006400000 -13.924318 173.19743
18256350000 -13.828247 172.00862
18506300000 -13.720627 172.18629
18756250000 -13.809983 171.79478
19006200000 -13.659253 171.40724
19256150000 -13.624393 171.66452
19506100000 -13.589695 171.10042
19756050000 -13.396907 171.21803
20006000000 -13.471356 171.48723
20255950000 -13.408764 170.17459
20505900000 -13.16505 170.78021
20755850000 -13.252393 170.73822
21005800000 -13.219703 169.00294
21255750000 -13.024482 169.08519
21505700000 -13.16806 169.28606
21755650000 -12.955005 168.67464
22005600000 -12.830622 168.95494
22255550000 -12.688047 168.11745
22505500000 -12.477671 167.16409
22755450000 -12.455356 166.72417
23005400000 -12.454397 165.06291
23255350000 -12.331141 165.31068
23505300000 -12.489056 165.5946
23755250000 -12.305942 164.46262
24005200000 -12.071784 165.17741
24255150000 -12.224259 164.65854
24505100000 -12.024858 162.72122
24755050000 -11.988867 162.71429
25005000000 -12.05229 162.52768
25254950000 -11.981612 161.70175
25504900000 -12.013114 161.69414
25754850000 -11.83653 160.84953
26004800000 -11.717072 161.31398
26254750000 -11.759791 161.83598
26504700000 -11.534629 159.26875
26754650000 -11.285902 160.71257
27004600000 -11.351604 160.14389
27254550000 -11.217078 157.99861
27504500000 -10.984578 158.4323
27754450000 -11.255041 158.4086
28004400000 -10.98652 157.65602
28254350000 -10.866299 157.75336
28504300000 -10.832642 157.27271
28754250000 -10.585481 155.33832
29004200000 -10.600007 155.02066
29254150000 -10.629262 152.94571
29504100000 -10.542998 152.87576
29754050000 -10.731339 152.63397
30004000000 -10.499274 151.10576
30253950000 -10.248859 152.01917
30503900000 -10.381387 151.97113
30753850000 -10.234513 149.06793
31003800000 -10.127218 149.92403
31253750000 -10.329473 151.02888
31503700000 -10.227059 149.19397
31753650000 -10.029349 149.46939
32003600000 -10.049079 149.83824
32253550000 -9.8942499 148.78606
32503500000 -9.9143324 147.98138
32753450000 -9.7423649 147.44492
33003400000 -9.6699724 147.44836
33253350000 -9.567874 146.40295
33503300000 -9.3060617 144.77835
33753250000 -9.3010263 146.09969
34003200000 -9.2570419 145.16199
34253150000 -8.9351473 143.29659
34503100000 -8.5839052 144.12338
34753050000 -8.78862 142.64922
35003000000 -8.5536261 140.13022
35252950000 -8.4890156 139.72711
35502900000 -8.4816208 139.72516
35752850000 -8.6502743 138.7496
36002800000 -8.477828 137.39763
36252750000 -8.3298235 135.36006
36502700000 -8.5707893 135.78836
36752650000 -8.6894817 134.81523
37002600000 -8.4919319 134.59779
37252550000 -8.2825928 134.79677
37502500000 -8.1330872 133.28053
37752450000 -8.0600891 131.7282
38002400000 -8.0728722 130.66031
38252350000 -8.2025671 130.14476
38502300000 -8.1443119 131.93179
38752250000 -7.6630096 133.26874
39002200000 -7.5218682 130.9402
39252150000 -7.4264917 129.03229
39502100000 -7.3865581 127.17325
39752050000 -7.565486 126.77655
40002000000 -7.511591 127.47424
40251950000 -7.3148937 125.99112
40501900000 -7.0307031 125.19525
40751850000 -7.0120721 123.32716
41001800000 -7.107615 121.49892
41251750000 -7.0525475 120.48847
41501700000 -7.0232501 121.35707
41751650000 -6.8453627 120.33448
42001600000 -6.5748377 119.3782
42251550000 -6.4206572 117.25749
42501500000 -6.706213 115.29173
42751450000 -6.793941 116.08483
43001400000 -6.7513251 116.88811
43251350000 -6.4875207 117.03715
43501300000 -6.275754 114.4803
43751250000 -6.2495279 111.77705
44001200000 -6.4913473 110.79235
44251150000 -6.7407646 112.53264
44501100000 -6.411202 112.71595
44751050000 -6.0195093 112.79383
45001000000 -5.5420613 110.65327
45250950000 -5.7631159 106.9361
45500900000 -5.8707223 106.43753
45750850000 -6.2387152 104.86918
46000800000 -5.9167042 110.33583
46250750000 -5.3073201 110.42906
46500700000 -4.8560038 105.55878
46750650000 -4.6954098 99.886726
47000600000 -5.6194558 99.502815
47250550000 -6.0017495 101.60665
47500500000 -5.4740167 105.90519
47750450000 -4.6495919 101.75703
48000400000 -4.6276431 97.259079
48250350000 -4.7831602 93.147339
48500300000 -5.8246374 92.31778
48750250000 -5.8323355 96.51693
49000200000 -5.2570734 100.22339
49250150000 -3.7854154 97.324898
49500100000 -3.6043959 88.542709
49750050000 -4.462019 84.089584
50000000000 -6.2394543 74.693047
